20
Properties=species:S:1:pos:R:3 energy=-1909.1300048828125 pbc="F F F"
C        2.09871101       4.25674057      -0.54435450
N        4.82227850       4.17965841      -0.93350583
C        5.99543953       2.24325609       0.65611291
C        8.83290100       2.17186236       0.17839015
C       10.44279671       4.37838221       1.26148665
C       12.50233364       2.40420413       1.85157251
C       10.37847042       0.41135558       1.94375336
H        1.26677787       5.69829893      -1.77148592
H        1.62548578       4.73778915       1.41413879
H        1.22002614       2.44660950      -1.02591348
H        5.56618834       5.90274858      -0.49641216
H        5.19357204       0.38743165       0.20186055
H        5.61112595       2.62598228       2.65652037
H        9.26116943       1.79998302      -1.82303774
H        9.64569092       5.27426338       2.95124197
H       10.97537804       5.84681273      -0.09006435
H       13.84953785       2.11590743       0.30537975
H       13.54447937       2.69006300       3.61113429
H       10.85743999      -1.44150198       1.16690588
H        9.56543446       0.15697955       3.83378196
16
Properties=species:S:1:pos:R:3 energy=-1482.6600341796875 pbc="F F F"
C        2.24089384      -0.24029757      -0.03286234
N        4.99889231      -0.17158714      -0.07876378
C        6.07682991      -1.07956278      -2.44848037
C        6.00900793       1.71388710      -1.83261859
C        8.37840271       3.09733677      -1.15239275
N        9.70425415       3.78039718      -3.46993399
H        1.53574264       1.16346657       1.31364310
H        1.60621047      -2.10120535       0.61155319
H        1.34569287       0.13356584      -1.86459279
H        4.81838608      -1.78429830      -3.90048933
H        7.85496807      -2.07947350      -2.28547263
H        4.68546247       2.90471697      -2.84800625
H        9.62046337       1.95488393       0.04879273
H        7.89402866       4.81591034      -0.10472862
H       10.30265427       2.17099309      -4.33911371
H       11.30058098       4.74865484      -3.00181103
12
Properties=species:S:1:pos:R:3 energy=-1304.7099609375 pbc="F F F"
C        5.17939901      -2.33420873       0.83132833
C        4.26180506      -0.03118048       0.31809759
C        5.74127150       2.21625185       0.18730965
C        4.90973520       4.65488672      -0.32166919
N        6.71294975       6.54287434      -0.34795529
C        8.92723656       5.54035568       0.14235307
S        8.97160721       2.34928870       0.65131301
H        3.91606069      -3.95028353       0.89472866
H        7.15924644      -2.71132231       1.20048630
H        2.24216008       0.15240641      -0.02513336
H        2.96095514       5.16244841      -0.69426650
H       10.63683414       6.65971613       0.22281761
18
Properties=species:S:1:pos:R:3 energy=-1711.9100341796875 pbc="F F F"
N        1.63892174       0.18591125      -0.42917570
C        4.37059641      -0.12432508      -0.53067291
C        5.68170738       2.27681756       0.39281738
C        8.53676224       1.93653464       0.32866117
C        9.83489037       2.04048848      -2.26224780
O       11.58394527       3.95256996      -1.38507473
C       10.10614204       4.30817890       0.88992870
H        0.78497332      -1.40457678      -1.09983945
H        1.09543645       1.62013781      -1.59528792
H        4.94550800      -0.56357300      -2.46894598
H        4.91746426      -1.73076236       0.65350509
H        5.08568764       2.69546747       2.33543682
H        5.11494064       3.89406419      -0.77645069
H        9.15687561       0.31700155       1.46667314
H        8.69481850       2.74652791      -3.83614397
H       10.80985737       0.30834660      -2.82636881
H       11.27675152       4.20488644       2.58939719
H        9.09801102       6.11347198       0.84446192
19
Properties=species:S:1:pos:R:3 energy=-1787.8800048828125 pbc="F F F"
C        1.73036551       0.03787011      -0.27608898
C        4.56236601       0.04140390       0.07362373
N        5.39751148      -0.18224519       2.71857882
C        6.15920305      -1.21643555      -1.93335986
C        6.08077955       1.62682748      -1.76927495
C        8.34848881       3.10929871      -0.98770314
N        9.87393284       3.56519508      -3.23842359
H        1.19298410       0.18256645      -2.27107286
H        0.87981868       1.63620043       0.72720438
H        0.91256768      -1.71154380       0.47008827
H        7.24982071      -0.69143188       2.83559084
H        4.42793083      -1.58992112       3.61090755
H        5.21885681      -2.09421349      -3.52968717
H        7.88076258      -2.17688894      -1.38019931
H        5.02313757       2.63350344      -3.21363044
H        9.49627113       2.11913896       0.41978377
H        7.75596523       4.91772890      -0.17763425
H       10.49198627       1.87642241      -3.92482901
H       11.44839573       4.55049849      -2.73301649
17
Properties=species:S:1:pos:R:3 energy=-1634.5999755859375 pbc="F F F"
C        2.54952407       5.44161749      -1.06087339
O        4.96340370       5.33838177       0.11109700
C        6.23910093       3.02962780      -0.45311853
C        8.73924637       3.06386971       0.84143835
O       10.78213501       1.96816862      -0.56999809
C       10.87595940       4.64602375      -0.16865806
C       12.94812012       5.51189661       1.51794136
H        1.70281327       7.27869606      -0.64254469
H        1.32112646       3.95976996      -0.30700490
H        2.72453165       5.24862003      -3.11203885
H        6.46257973       2.84655118      -2.50526667
H        5.12181902       1.42959666       0.23948500
H        8.62117672       2.70459485       2.84893227
H       10.52896786       5.89753294      -1.74707067
H       13.43355274       4.09310913       2.94466567
H       12.38974380       7.24566364       2.49812341
H       14.64770222       5.91601419       0.41029733
10
Properties=species:S:1:pos:R:3 energy=-1155.4000244140625 pbc="F F F"
C        1.73586464       0.04643057      -0.00355269
C        4.00442410       0.02636168      -0.00117163
C        6.68798637       0.00024566       0.00164406
C        8.25247192       2.06072736       0.00368497
O       10.69615269       1.27414787       0.00610382
N       10.76382351      -1.34990692       0.00566918
C        8.34351921      -2.07435226       0.00296687
H       -0.27731732       0.06460974      -0.00566918
H        7.97383165       4.08156300       0.00377945
H        7.91018581      -4.07003546       0.00213539
13
Properties=species:S:1:pos:R:3 energy=-1450.989990234375 pbc="F F F"
C        1.89271188      -0.40581870       0.00532903
C        4.70084476      -0.07460639       0.00589595
C        5.93188810       2.15048933       0.00000000
C        4.60341072       4.45147657       0.00000000
C        3.47887254       6.39923620       0.00000000
C        8.58884335       2.15048933       0.00000000
C       10.83791924       2.15048933       0.00000000
H        1.42704558      -2.42206192      -0.04357709
H        1.03538096       0.46923789      -1.66174960
H        1.04894924       0.38654348       1.71963191
H        5.79184055      -1.81819999       0.01128167
H        2.47788453       8.14500332      -0.00000000
H       12.85036469       2.15712237      -0.00000000
14
Properties=species:S:1:pos:R:3 energy=-1462.969970703125 pbc="F F F"
N        2.15009260      -0.13252649       0.39030403
C        4.75285006       0.03407176       0.16502978
C        6.09748507      -2.32158518      -0.32193375
C        5.28853083      -4.62193012       0.36112666
C        5.91913271       2.28811812       0.31067097
C        8.67119694       2.74244618       0.17806889
O        9.52826405       4.89474964       0.18258534
H        1.22473156       1.52858055       0.11345915
H        1.39726353      -1.55435646      -0.66310489
H        7.89143944      -2.21560931      -1.32076740
H        3.54501295      -4.90068340       1.40661764
H        6.39628839      -6.29076624      -0.07162062
H        4.83779335       4.00329018       0.62512141
H        9.91004467       1.07708716       0.09314460
15
Properties=species:S:1:pos:R:3 energy=-1513.4000244140625 pbc="F F F"
C        2.08138227      -0.07099701      -0.18016648
C        4.86001635       0.32301089      -0.19889368
N        5.97909355       2.40437412      -0.87191963
N        8.57317734       2.17038822      -0.72843271
C        9.09047127      -0.26703721       0.50374430
C        8.66046333      -2.70918703      -0.87433851
C        6.60200405      -1.61705756       0.74950320
H        1.64330590      -2.08536959      -0.30301759
H        1.22244489       0.91358811      -1.77964962
H        1.30221033       0.68710440       1.57616389
H        9.33545494       3.69222260       0.18370028
H       10.37021255      -0.25471619       2.10165882
H        9.63834000      -4.37428141      -0.19534099
H        8.44038582      -2.63987184      -2.91015935
H        6.17205334      -2.49460864       2.54421377
13
Properties=species:S:1:pos:R:3 energy=-1422.25 pbc="F F F"
C        1.88972616       0.00000000       0.00000000
C        4.13880253       0.00000000       0.00000000
C        6.79575777       0.00000000       0.00000000
C        8.22202873      -2.06970358      -0.01188638
C       10.90831184      -1.30517709       0.00468652
C       10.67814350       1.52325153      -0.49057290
O        8.10751057       2.27362394       0.01241550
H       -0.12226528       0.01184858       0.00117163
H        7.54129219      -3.99285913       0.00298577
H       11.76484871      -1.68949080       1.84660256
H       12.02366638      -2.24028921      -1.46062601
H       11.10144138       1.97359216      -2.47060895
H       11.95786572       2.62290215       0.70772135
13
Properties=species:S:1:pos:R:3 energy=-1253.72998046875 pbc="F F F"
O        5.75432968      -1.79009974      -1.07999742
C        4.47288704       0.19131587       0.19358355
C        6.13960695       2.46314454       0.20928717
C        6.21665096       4.21699953      -2.03257060
C        5.02818346       5.07739162       0.40336204
H        4.61807489      -3.23194194      -1.09258294
H        4.07409859      -0.41381222       2.13134646
H        2.68070889       0.55204570      -0.77550578
H        7.90277815       2.09602761       1.18589759
H        4.99023771       3.81732249      -3.62404108
H        8.03211117       5.00671577      -2.55611920
H        6.03803396       6.46462059       1.52175868
H        2.99111533       5.28641415       0.44933909
14
Properties=species:S:1:pos:R:3 energy=-1361.75 pbc="F F F"
C        4.23517847      -0.77646959      -3.00785828
O        4.28072119       0.21508864      -0.51222914
C        5.94796991       2.28114510      -0.25067216
C        6.32360935       2.95226240       2.50398159
O        6.73392582       5.62907839       2.53756213
N        5.42341948       6.66166258       0.44161010
C        4.95754528       4.79816580      -1.06055212
H        2.91225696      -2.36308360      -3.05056596
H        6.10789728      -1.46867621      -3.54624128
H        3.58940244       0.65242797      -4.35436344
H        7.75605965       1.93515515      -1.19993830
H        7.96701002       1.99271619       3.31140494
H        4.67172432       2.50736427       3.67160559
H        4.00882721       5.03154707      -2.89167786
12
Properties=species:S:1:pos:R:3 energy=-1264.8199462890625 pbc="F F F"
N        2.62078547       0.09278555       2.04797173
C        4.84797907      -0.40358880       0.90313792
O        5.27560520      -2.36693859      -0.22472623
O        6.43542433       1.56010115       1.22565746
C        8.87793350       1.30139768       0.09034780
C        9.37100029       3.52161813      -1.50248349
C        9.76442242       5.32572079      -2.82028389
H        2.34921312       1.76617587       2.91783166
H        1.21218371      -1.18618107       1.92765296
H        9.08901596      -0.42707810      -1.02791655
H       10.26359367       1.22252047       1.62643063
H       10.10376072       6.92488241      -3.99911404
13
Properties=species:S:1:pos:R:3 energy=-1330.68994140625 pbc="F F F"
N        2.18703675       0.19726852       0.89323574
C        4.41704607      -0.26486403       0.08654945
N        5.51176405      -2.56178832      -0.32119676
C        7.75373507      -2.42722082      -1.91914916
C        8.36328506       0.34608445      -1.97143793
O        6.67502308       1.94828880      -3.35118365
C        6.22267914       1.71562564      -0.68576270
H        1.87358785       2.10802722       0.93726635
H        4.29570675      -4.02018452      -0.55826288
H        9.29184055      -3.52178812      -1.07852340
H        7.35037327      -3.13942099      -3.81832385
H       10.29862976       0.88837916      -1.66401720
H        6.64019537       3.27070022       0.56599188
15
Properties=species:S:1:pos:R:3 energy=-1548.72998046875 pbc="F F F"
O        1.72055781       0.00699199       0.17765315
C        4.43335438       0.01755556       0.03359933
C        5.78911924       1.99099660       1.70347476
C        7.80035496      -0.03804019       2.33169532
C        5.80760098      -2.04360652       1.57901740
C       10.05617809       0.01545796       0.76989335
C       11.91625404       0.05958306      -0.52899104
H        1.19797301      -1.43392420      -0.83699751
H        5.05320311       0.09013993      -1.94443369
H        4.68395090       2.60043335       3.34781981
H        6.45874357       3.67727470       0.71099055
H        8.27752972      -0.09756656       4.34786320
H        6.49151182      -3.65930343       0.48424232
H        4.70823383      -2.76304412       3.18229890
H       13.56602287       0.10132711      -1.68329251
13
Properties=species:S:1:pos:R:3 energy=-1355.72998046875 pbc="F F F"
C        1.88972616       0.00000000       0.00000000
C        4.13880253       0.00000000       0.00000000
C        6.86756706       0.00000000       0.00000000
C        7.94476795      -2.25313926      -1.42865181
C        8.52279758      -1.01901591      -3.89969563
N        8.45300961       1.42122519      -3.90424967
N        7.87945890       2.09924006      -1.49626625
H       -0.12445737       0.01009114      -0.00967540
H        7.59295750       0.06600814       1.93611896
H        6.63307095      -3.82631755      -1.69786227
H        9.72220612      -2.94001698      -0.62468678
H        9.02004051      -2.15725470      -5.56331587
H        6.77572632       3.67861652      -1.41005695
17
Properties=species:S:1:pos:R:3 energy=-1665.3399658203125 pbc="F F F"
N        5.00754738      -1.67106593      -3.05345726
C        4.08870602      -0.75299919      -0.83219761
N        1.80085230      -1.22263396      -0.12434398
C        5.73390150       0.93371367       0.81728768
C        8.43910122       0.08292118       0.96033990
C       10.47892857       1.41907096      -0.51632988
C       10.35089970       1.71122265       2.30540919
H        6.58165169      -0.82155842      -3.75048280
H        3.73719788      -2.16602302      -4.39433146
H        0.95669276      -2.39783573      -1.40108073
H        4.93660736       0.95839351       2.72800875
H        5.59687757       2.85845637       0.06563019
H        8.59823513      -1.94199598       1.25166011
H        9.98268604       3.04878974      -1.65564573
H       12.00577068       0.29048869      -1.28786731
H       11.77739716       0.77081931       3.43778968
H        9.74129295       3.51496625       3.06398296
12
Properties=species:S:1:pos:R:3 energy=-1220.22998046875 pbc="F F F"
C        0.91742426       2.76438594       0.63165987
C        1.91482174       0.56236362      -0.82259780
C        1.85937715      -2.05044723       0.28965724
N       -0.87414950      -2.62265635       0.62389308
C       -2.02533293      -0.64811939      -0.27399141
N       -0.71928644       1.41859853      -1.15556753
H        1.39423990       4.64938784       0.00597153
H        0.39058751       2.54982638       2.59563327
H        3.07426310       0.80987996      -2.47979307
H        2.82888222      -2.11753273       2.11466026
H        2.70442486      -3.43117571      -0.99684942
H       -4.09494209      -0.49665782      -0.43312523
16
Properties=species:S:1:pos:R:3 energy=-1486.1300048828125 pbc="F F F"
C        4.16499424       7.72873402       4.11990547
O        4.32688713       5.12542868       4.74661398
C        6.10198259       3.72892094       3.27196622
C        5.33207035       3.57583427       0.49992704
O        8.60721111       4.71397877       3.42119789
C        9.66695118       4.39259291       5.86941385
H        2.84120321       8.61868191       5.43579721
H        3.42807651       7.99718857       2.20763469
H        5.99693251       8.66556549       4.32363653
H        6.09859991       1.79389811       4.01551676
H        5.53591490       5.40488148      -0.44574860
H        3.36571574       2.96987462       0.30588996
H        6.55748177       2.25327158      -0.51608419
H       11.59313011       5.13706923       5.83963156
H        9.74771786       2.38821697       6.37130594
H        8.58459091       5.43919849       7.28417635
15
Properties=species:S:1:pos:R:3 energy=-1517.0 pbc="F F F"
C        2.27317047       0.07432293       2.16825294
C        3.85600519       0.62721902      -0.13628705
O        3.33209729      -0.40479824      -2.17099309
C        6.09412098       2.50428391       0.17022653
C        5.93580008       5.02880669      -1.24597204
C        6.59380245       6.21287155       1.29482150
O        6.19403076       3.83737230       2.59007764
H        3.47726607      -0.66641194       3.67379761
H        0.84126830      -1.34493697       1.70925725
H        1.32437682       1.80115461       2.78721380
H        7.90262699       1.53179312      -0.13679728
H        4.05727959       5.52132607      -1.95390129
H        7.34011221       5.29567385      -2.73619127
H        8.54777908       6.85653114       1.49864733
H        5.29289627       7.67697477       1.95121777
16
Properties=species:S:1:pos:R:3 energy=-1655.550048828125 pbc="F F F"
N        5.52544594      -2.22222352      -1.02700949
C        4.50474787       0.03293793       0.22461285
C        6.34014463       2.29401422       0.14326014
C        5.33142757       4.56096745       1.55624616
C        5.15267849       6.54856253      -0.01041239
C        5.98264599       5.81731415      -2.49861479
C        6.67912340       3.38189173      -2.47274446
H        4.26983643      -3.67013168      -0.83728093
H        7.13855362      -2.77874780      -0.13443512
H        4.08369827      -0.44905561       2.19589949
H        2.70406580       0.52436119      -0.67718339
H        8.18153191       1.75697291       0.92993420
H        4.85419607       4.57132292       3.53938150
H        4.50283957       8.41918373       0.47698578
H        6.02002478       7.06517601      -4.11164713
H        7.37522316       2.31780577      -4.06912851
17
Properties=species:S:1:pos:R:3 energy=-1665.5799560546875 pbc="F F F"
C        5.44318628      -1.37812054      -2.59442401
C        4.68298721      -0.01139505      -0.17115250
C        5.72093821       2.70763731       0.00000000
N        4.59823275       3.86972451       2.29168987
C        5.22223949       6.54240179       2.53981090
C        8.44970226       2.70763731       0.00000000
N       10.62479591       2.70763731       0.00000000
H        4.52814293      -3.23288679      -2.67672157
H        7.48437357      -1.68552232      -2.68490410
H        4.86583710      -0.30422702      -4.26429939
H        5.31857729      -1.13893795       1.45214117
H        2.60956073       0.03639613      -0.09117929
H        5.02602911       3.74927330      -1.65328360
H        5.21711826       2.92501259       3.85419083
H        4.67123270       7.60852861       0.85277671
H        7.23625278       6.83670807       2.90139103
H        4.18101931       7.33671045       4.14148617
12
Properties=species:S:1:pos:R:3 energy=-1281.47998046875 pbc="F F F"
N        1.68896163       0.04316134       0.51702905
C        4.11737299      -0.00544241       0.54363644
N        5.56303263       2.09527159       0.28725728
C        8.14326477       2.31024694       0.26887023
C        9.49130058       4.43594313       0.00000000
C       12.14825535       4.43594313       0.00000000
N       14.32334900       4.43594313       0.00000000
H        1.00431383      -1.75810671       0.74094272
H        5.18497372      -1.78214407       0.77875614
H        4.54286385       3.70675445       0.07226313
H        9.10213089       0.50166559       0.50247818
H        8.55890942       6.24382544      -0.23430714
19
Properties=species:S:1:pos:R:3 energy=-1869.0 pbc="F F F"
C        2.50594687      -1.10669923       2.96072841
C        3.09875393      -0.28839111       0.26699939
C        5.77632570       0.74859613      -0.01867049
C        7.82839823      -1.26498270       0.05194857
O        7.34251213      -3.53843665       0.10884822
C       10.52566147      -0.27986845      -0.01300132
C       12.47757816      -2.38090372       0.06264442
H        0.54499704      -1.75164390       3.09087396
H        2.74894691       0.46576080       4.28221369
H        3.72606754      -2.65967607       3.57005167
H        1.75440288       1.19332421      -0.27278197
H        2.79212713      -1.88080668      -1.02192605
H        6.16483450       2.13898110       1.46501017
H        5.93228483       1.69952524      -1.85210168
H       10.79602432       0.97124362       1.61237109
H       10.76595879       0.82356155      -1.74691951
H       12.28448582      -3.51349211       1.78378808
H       14.38814831      -1.59105492       0.01893506
H       12.26609898      -3.65038395      -1.55824924
18
Properties=species:S:1:pos:R:3 energy=-1755.5 pbc="F F F"
C        5.32415199      -0.89799786      -3.20539117
C        4.66802025       0.04992656      -0.56209904
C        5.72093821       2.70763731       0.00000000
N        4.72450447       3.48858571       2.47385931
C        5.23724365       6.13057375       3.05457211
C        8.44970226       2.70763731       0.00000000
C       10.69877911       2.70763731       0.00000000
H        4.40629339      -2.71995831      -3.54981279
H        7.36154175      -1.17059088      -3.43195057
H        4.67512560       0.42874107      -4.65148544
H        5.36279726      -1.32409334       0.82777566
H        2.59986639       0.07978424      -0.39302525
H        5.00189734       3.99888730      -1.45435214
H        5.49479437       2.36846924       3.83905435
H        4.51298714       7.38418055       1.57795906
H        7.25915623       6.49221087       3.31881261
H        4.28453827       6.63596249       4.81708193
H       12.71241474       2.70782638       0.00037795
15
Properties=species:S:1:pos:R:3 energy=-1562.75 pbc="F F F"
C        4.43985462      -0.96360916      -2.65935493
C        4.80574369       0.03392058       0.00891951
C        5.67384624       2.71005630      -0.00253223
N        4.23525429       4.74037790       0.00143619
C        5.86153364       6.75567627      -0.01670518
C        8.32696438       5.94513512      -0.03106710
N        8.18489552       3.36637712      -0.02040904
H        3.78126645      -2.92376542      -2.60857797
H        6.21092510      -0.90844804      -3.72956347
H        3.04024816       0.15852913      -3.69239259
H        6.17097616      -1.15486836       1.01570892
H        3.01575732      -0.09597919       1.04310989
H        5.16817427       8.67971992      -0.01855711
H       10.10695457       6.94425201      -0.04724315
H        9.65508366       2.14767385      -0.02849707
16
Properties=species:S:1:pos:R:3 energy=-1605.739990234375 pbc="F F F"
C        7.20648956      -2.03846645      -1.93417251
N        5.51457977      -0.26898363      -0.65671760
C        3.18647504      -1.24351537       0.11181509
O        2.43778443      -3.41781545      -0.18307666
C        6.25174332       2.24826384      -0.25743738
C        4.46640539       4.03199530       1.07806981
C        8.50293636       3.15087271      -1.01916707
H        8.96008015      -2.21258593      -0.85043347
H        7.60559988      -1.34771490      -3.84289026
H        6.38166189      -3.92575479      -2.10613751
H        1.96546638       0.13985863       1.06255519
H        4.04994774       3.35541654       2.98880982
H        2.70007849       4.22918797       0.01821696
H        5.26362419       5.93309736       1.27516830
H        9.90942192       2.02372670      -1.99050522
H        9.02928162       5.10755157      -0.68733120
16
Properties=species:S:1:pos:R:3 energy=-1567.6600341796875 pbc="F F F"
N        1.75612247       0.16833681       0.28189045
C        4.50452137       0.16448176      -0.11893936
C        5.80841351       1.98024404       1.72836244
O        7.52624989      -0.01182969       2.53690076
C        5.80108118      -1.90709269       1.49379075
C        6.94111538      -4.00682402       0.00963760
C        9.41523933      -4.11361265      -0.49835858
H        0.85570580      -1.29712689      -0.58738357
H        0.88907838       1.76664829      -0.35609999
H        5.11654711       0.33257291      -2.08652210
H        4.69972992       2.68537641       3.32684398
H        6.82480240       3.54573083       0.84198636
H        4.64114857      -2.67904592       3.03427649
H        5.68153715      -5.48719788      -0.64543599
H       10.71892357      -2.66651702       0.15289775
H       10.20272541      -5.67386484      -1.57242227
17
Properties=species:S:1:pos:R:3 energy=-1644.06005859375 pbc="F F F"
C        1.98763287      -0.11589690       0.01683746
C        4.80389166      -0.07504103      -0.03344815
C        6.28265905      -1.32352638      -2.12609315
O        4.85323238      -2.46461868      -4.12421370
C        6.19000578       1.52105951      -1.94981945
C        8.48640060       2.96700239      -1.19704700
O        9.95815754       3.46120358      -3.38406491
H        1.28408778       1.35325181       1.29242146
H        1.31464469      -1.94416916       0.71082050
H        1.15613449       0.21548547      -1.84798205
H        5.57661963      -0.22791986       1.85933936
H        8.01398849      -2.27895308      -1.57538915
H        3.95937300      -1.22652674      -5.14615870
H        5.07629585       2.56362128      -3.31641269
H        9.65680313       1.94760847       0.17149265
H        7.94601488       4.77907944      -0.36089990
H       10.39617729       1.83267534      -4.11520004
13
Properties=species:S:1:pos:R:3 energy=-1294.719970703125 pbc="F F F"
C        1.94218493      -3.19552684       0.07749767
C        3.67341971      -0.92400050       0.30530414
O        2.14589739       1.29510486       0.43378663
C        3.60748720       3.56283307       0.70626622
C        4.83847380       4.34344101      -1.66473532
N        5.85268974       4.95830107      -3.51150799
H        3.03418207      -4.94633913      -0.03645282
H        0.75245118      -3.03883076      -1.60838366
H        0.66898197      -3.30741763       1.70491087
H        4.92487192      -0.83703530      -1.34028828
H        4.81791353      -1.08553433       2.02272511
H        4.98917913       3.33132267       2.23127532
H        2.29235125       5.04615450       1.30037725
15
Properties=species:S:1:pos:R:3 energy=-1522.2900390625 pbc="F F F"
O        4.61242485      -0.72548479       2.61710072
C        4.69937086       0.03562134       0.04323693
C        5.70290995       2.66464615      -0.11440402
C        7.96377850       3.39581895      -0.94505203
C        8.16705608       6.17137289      -0.71310705
C        5.46786594       6.88544416      -0.00612271
O        4.11563444       4.61843395       0.66062933
H        3.58530188      -2.24329400       2.68127561
H        2.79114437      -0.04633608      -0.75233775
H        5.89747620      -1.29688120      -0.99014091
H        9.45070934       2.16101527      -1.59579813
H        9.50445271       6.68942261       0.77788687
H        8.75377846       7.08150291      -2.47348142
H        4.48781633       7.77240562      -1.60144842
H        5.41672993       8.19899273       1.59177303
20
Properties=species:S:1:pos:R:3 energy=-1869.5 pbc="F F F"
C        1.92011297      -0.42964813      -0.14520656
C        4.81863165      -0.44092980       0.06428848
C        5.59918308      -2.04234052       2.35388064
N        5.87243748      -1.62191415      -2.22602177
C        5.77524853       2.31773019       0.29714054
C        8.64360714       2.63318229       0.48885325
O        9.87330914       1.75175726      -1.72736084
H        1.28287840       0.65870184      -1.78862584
H        1.06017411       0.41759169       1.53795362
H        1.16435480      -2.34959102      -0.33223274
H        4.94964647      -1.17546630       4.11886597
H        7.65267277      -2.26990128       2.47996330
H        4.78248119      -3.94453883       2.25646520
H        5.16658688      -0.72317928      -3.78714347
H        5.23231173      -3.43971729      -2.36234665
H        4.91156816       3.20181966       1.96263182
H        5.11945724       3.38988519      -1.35561395
H        9.42070007       1.63408399       2.12278605
H        9.11222172       4.63680220       0.70947880
H        9.03976917       0.14926946      -2.16209245
17
Properties=species:S:1:pos:R:3 energy=-1565.050048828125 pbc="F F F"
C        1.51612723      -1.23068416       0.06494989
C        4.37592554      -0.81791127       0.09310681
N        5.56433630      -2.40316463      -1.85782754
C        5.05499840       1.99114776      -0.26248297
O        4.01487446       2.91919231      -2.58246183
N        4.56436872       5.50755024      -2.77479815
C        3.73621535       6.32126617      -4.91691637
H        0.59985578      -0.07394499       1.51654303
H        1.05253971      -3.20979428       0.46062073
H        0.68015021      -0.73990339      -1.76432395
H        5.11165237      -1.43048489       1.92922139
H        5.10447168      -1.69098365      -3.59212375
H        4.83195400      -4.18220949      -1.79248083
H        7.11281586       2.23698211      -0.29239732
H        4.28433037       3.09718561       1.31294394
H        3.98675513       8.31921673      -5.43774366
H        2.76593542       5.09747934      -6.29647303
17
Properties=species:S:1:pos:R:3 energy=-1572.81005859375 pbc="F F F"
C        1.92425144      -0.31276858       0.17343907
C        4.79098511      -0.13634375      -0.12368257
N        5.59918308      -1.64485538      -2.30920744
C        5.62820911       2.63456178      -0.40661237
C        8.49641609       2.94685793      -0.53772157
O        9.48338318       1.87927592      -2.79668140
H        1.29601192       0.74850160       1.83624685
H        1.32227921      -2.27855611       0.42220262
H        0.93881595       0.45377994      -1.47908866
H        5.67909956      -0.93265545       1.57011676
H        4.63262606      -1.05552542      -3.87726450
H        5.05078459      -3.47821093      -2.04559064
H        4.92434263       3.72336531       1.21036959
H        4.77647161       3.44449830      -2.11566186
H        9.42243862       2.04477811       1.07784307
H        8.99379253       4.95416260      -0.52275497
H        8.66609478       0.21856572      -2.95778036
15
Properties=species:S:1:pos:R:3 energy=-1536.1600341796875 pbc="F F F"
C        2.74875784       1.24181461      -0.82513005
O        5.18455791       1.63561463       0.26068771
C        7.09053612       1.66541564      -1.45767808
O        6.86605549       1.38401651      -3.73956013
C        9.56877899       2.10250926      -0.21455951
C       11.93157959       0.84147614      -1.20698702
C       11.58891582       3.63968801      -1.52400744
H        1.36699009       1.15071094       0.70993233
H        2.68779516      -0.54826623      -1.86277866
H        2.24784803       2.82311845      -2.06308961
H        9.45554733       2.31856179       1.82379353
H       11.78040123      -0.33417916      -2.88005590
H       13.31385803       0.18749863       0.15563785
H       12.73609257       4.88994980      -0.37705705
H       11.20709610       4.34606791      -3.41129589
13
Properties=species:S:1:pos:R:3 energy=-1349.6600341796875 pbc="F F F"
C        2.07130980       0.00268341      -0.24044876
N        4.75443745       0.03792680       0.22058773
N        6.07807732      -2.18091393       0.52844304
C        8.40000248      -1.52404523       0.91351253
C        8.84170723       1.26445353       0.89820576
C        6.22243357       2.21538258       0.40870997
O        5.58000231       4.41982365       0.22667265
H        1.34826291       1.92436481      -0.46651670
H        1.13200259      -0.90124822       1.36253035
H        1.70368254      -1.07869351      -1.96215940
H        9.95736408      -2.85925007       1.23134553
H        9.54203987       1.88592780       2.73500061
H       10.13048172       1.77471745      -0.62797487
15
Properties=species:S:1:pos:R:3 energy=-1541.3699951171875 pbc="F F F"
C        1.68066573       0.12218969       0.11423395
C        4.53439808      -0.06079249       0.01216984
C        6.02369118       1.77343237       1.69032228
O        7.58604097      -0.27504963       2.62898707
C        5.77524853      -2.11165547       1.66832578
C        7.06457090      -4.11969757       0.34230500
C        8.12478256      -5.79856777      -0.75677860
H        0.81605935      -1.47704768      -0.87382823
H        1.02997637       1.85950947      -0.80075258
H        0.97935057       0.12381486       2.06084085
H        5.21205378      -0.04214089      -1.94947922
H        4.97683954       2.67161918       3.23233867
H        7.13483095       3.19084048       0.67820382
H        4.58842516      -2.79817414       3.22372150
H        9.07767773      -7.28542328      -1.72429955
14
Properties=species:S:1:pos:R:3 energy=-1390.280029296875 pbc="F F F"
C        1.87347448      -0.02350819       0.00202201
C        4.73312140       0.01579811       0.05158952
C        5.83751535       2.04200029       1.74538887
O        8.31598568       1.16535628       2.40787005
N        8.17648602      -1.50560153       2.25141978
C        5.90010309      -2.26332498       1.24763501
O        5.06977606      -4.40950584       1.25109315
H        1.18345988      -1.56257677      -1.19768953
H        1.12678695       1.75763428      -0.73909080
H        1.08610117      -0.31936371       1.89397800
H        5.49409533       0.16975410      -1.86997855
H        4.75668621       2.30710983       3.49242187
H        5.99300194       3.86050272       0.77444756
H        9.15613842      -2.57951403       3.49417925
14
Properties=species:S:1:pos:R:3 energy=-1262.43994140625 pbc="F F F"
C        2.52010107      -0.55835736      -0.12264322
O        5.12918901      -0.04794235       0.26210502
C        5.69580460       2.56709838      -0.15826456
C        8.54326248       2.97828388       0.17447841
N        9.98544502       1.61443079      -1.76077127
H        2.18792486      -2.56282759       0.25010526
H        1.98525178      -0.15312451      -2.07832074
H        1.36366415       0.55673224       1.17903793
H        4.66769934       3.71306610       1.22662127
H        5.10074902       3.12112832      -2.06435561
H        9.12658310       2.28384733       2.03548074
H        8.98904896       4.99358225       0.05620046
H        9.33010674      -0.20554551      -1.78522432
H       11.82898617       1.51013684      -1.21751273
12
Properties=species:S:1:pos:R:3 energy=-1254.1099853515625 pbc="F F F"
C        1.55012345       3.43128920      -0.05143835
N        3.92373276       3.98887181      -0.01816027
N        5.50753117       1.98897457       0.18895371
C        8.09142971       2.22893190       0.18572229
C        9.44641972       4.35819960       0.00000000
C       12.10337448       4.35819960       0.00000000
N       14.27846813       4.35819960       0.00000000
H        0.14150269       4.95541000      -0.21404928
H        0.81590813       1.48428535       0.07152613
H        4.83382511       0.18836790       0.34273964
H        9.03211594       0.40693364       0.35375673
H        8.49429989       6.16398430      -0.16814783
16
Properties=species:S:1:pos:R:3 energy=-1583.219970703125 pbc="F F F"
C        1.99050522       0.56221241      -1.40777040
C        4.63797379       1.67133045      -1.53523242
C        5.01221514       3.69490600       0.40874776
N        6.01042509       3.07095623       2.90577507
C        7.64426327       4.48460340       1.16046190
C        8.12850571       7.14522457       1.87232172
O        8.88946056       8.66513157       0.30144912
H        1.75648153      -0.91041338      -2.83999372
H        0.56185335       2.02057076      -1.74194956
H        1.62299132      -0.27098674       0.44918790
H        4.94248438       2.48742771      -3.41526413
H        6.02718687       0.14940175      -1.30687785
H        3.56999493       5.15012741       0.33062649
H        6.55515766       1.22047961       2.99461126
H        9.24257469       3.47401595       0.37488386
H        7.80031729       7.67563295       3.86086178
15
Properties=species:S:1:pos:R:3 energy=-1552.4100341796875 pbc="F F F"
C        1.94286525       0.14855137      -1.13920248
O        4.46462917      -0.11878818      -0.23183160
C        5.75795794       2.12378764      -0.24897142
C        8.26857185       2.20771027       0.00000000
C        9.59704971       4.50869751       0.00000000
C       10.72158813       6.45645714       0.00000000
C       12.08596992       8.81963539       0.00000000
H        1.06062770      -1.72044444      -1.14243388
H        1.93101668       0.87764549      -3.07643628
H        0.84300685       1.38378978       0.10504988
H        4.60715246       3.80413198      -0.44455808
H        9.32937050       0.46474034       0.20824783
H       10.80080509      10.42136765      -0.24375577
H       13.46977901       8.88057899      -1.53555369
H       13.10417366       9.09168053       1.77927160
15
Properties=species:S:1:pos:R:3 energy=-1492.3599853515625 pbc="F F F"
C        1.73151827       0.00081258       0.23071666
C        4.60371304       0.00075589      -0.05017223
O        5.21303654      -1.29304516      -2.35286021
C        5.72093821       2.70763731       0.00000000
O        4.85701180       4.04622507       2.17594409
C        8.44962692       2.68758750       0.00024566
C       10.69864655       2.67107129       0.00043464
H        1.14182925       0.79185194       2.04557180
H        0.99543214      -1.92848444       0.08932736
H        0.84436744       1.08897364      -1.28862309
H        5.39996815      -1.11582661       1.50494015
H        4.51548147      -0.32265183      -3.74948120
H        5.04872465       3.74294281      -1.66346920
H        5.80435038       3.39708519       3.61211705
H       12.71264076       2.65226841      -0.00958091
15
Properties=species:S:1:pos:R:3 energy=-1522.8699951171875 pbc="F F F"
O        4.71462107      -2.37041569       1.66832578
C        4.44573212      -0.48070854      -0.23169932
C        6.38030148       1.62072361       0.19352685
C        9.03275871       0.81530344      -0.45865542
C       10.80963039       0.24657147       1.25695133
C        9.72640133       0.69953883      -3.17645955
O        8.22172642       1.19753838      -4.86483526
H        3.48246288      -3.68050623       1.29155219
H        2.53376365       0.29353115      -0.08055902
H        4.65065384      -1.36937118      -2.08795834
H        6.30550575       2.22864842       2.17403555
H        5.87232399       3.27068138      -0.95138264
H       10.37402916       0.29604450       3.26465297
H       12.71286774      -0.32011962       0.74050808
H       11.68856049       0.13798781      -3.59501505
13
Properties=species:S:1:pos:R:3 energy=-1363.760009765625 pbc="F F F"
O        2.05653214      -0.04210310      -1.28093195
C        4.48226023      -0.34619781      -0.16062672
C        5.94968939       2.09961796      -0.45073748
C        8.54171371       1.88528526       0.70260018
O        9.36493492      -0.00238105       1.75534773
C       10.11776352       4.11499214       0.51632988
C       11.43050003       5.96074438       0.36494392
H        1.16388237      -1.63584137      -1.06342447
H        5.45027256      -1.91359341      -1.10339224
H        4.22867775      -0.83212203       1.83513200
H        4.92247200       3.65002489       0.46137664
H        6.13248253       2.57671714      -2.45842028
H       12.60881996       7.58868647       0.23976845
14
Properties=species:S:1:pos:R:3 energy=-1289.5 pbc="F F F"
C        1.85682595       0.06030116       0.03968425
N        4.62839270      -0.01496663       0.10159168
C        5.84233379       1.87825549       1.82273531
C        8.04118156       0.06784116       2.43364596
S        5.96518517      -2.44934964       1.70965409
O        4.40232468      -3.12577701       3.84204006
O        7.03034830      -4.22896147      -0.05472647
H        1.13659465      -1.54422748      -1.04567993
H        1.24820185       1.79344463      -0.91011101
H        1.02782202       0.04123382       1.93245280
H        4.67397308       2.37585807       3.46074986
H        6.38840818       3.61223030       0.84028560
H        9.64909267       0.17120919       1.13925922
H        8.69559383       0.09025332       4.39098644
17
Properties=species:S:1:pos:R:3 energy=-1719.93994140625 pbc="F F F"
C        4.66758585      -0.80927521      -2.98523808
C        4.73771334       0.26221839      -0.32032749
C        6.55553532       2.49294567      -0.03059467
O        6.60504627       3.21548247       2.60230398
C        5.93706608       5.84225845       2.81066537
C        5.43946314       6.71151352       0.19959287
C        5.78452730       4.81540012      -1.41629303
H        3.43648577      -2.47007990      -3.05041480
H        6.55564880      -1.38868415      -3.60007954
H        3.93457985       0.57101852      -4.33882999
H        5.29856539      -1.23718476       0.99983519
H        2.82447910       0.81806242       0.25685158
H        8.47598839       1.93445599      -0.56385648
H        7.51234150       6.86361742       3.67523384
H        4.26297665       6.00965023       4.01092482
H        4.89010096       8.61219978      -0.29402250
H        5.57265139       4.93921518      -3.44113469
11
Properties=species:S:1:pos:R:3 energy=-1163.18994140625 pbc="F F F"
C        1.88972616       0.00000000       0.00000000
C        4.61849070       0.00000000       0.00000000
C        6.86756706       0.00000000       0.00000000
C        9.52452183       0.00000000       0.00000000
C       10.85065651       2.15026259       0.00000000
H        1.14515519       1.92918360       0.02207200
H        1.14502287      -0.98364025       1.65965199
H        1.14502287      -0.94541109      -1.68172395
H       10.49642754      -1.80722070      -0.00000000
H        9.93166351       3.98505449       0.00000000
H       12.90081978       2.11454678       0.00000000
20
Properties=species:S:1:pos:R:3 energy=-1915.8299560546875 pbc="F F F"
C        4.28264856      -0.90241981      -2.75401139
C        4.60940123       0.07199857      -0.07148834
C        6.20236444       2.46819019      -0.05149504
C        4.95652485       4.92547655      -1.06676924
C        6.08283949       6.36954880       1.19683909
N        8.55428028       7.39463043       0.49055400
C        6.44183064       3.81263590       2.54616022
H        3.17031789      -2.64540863      -2.75552297
H        6.11575842      -1.30326855      -3.62549639
H        3.30830574       0.48533836      -3.93877506
H        5.53400612      -1.38698339       1.07141805
H        2.74735951       0.41770506       0.76758784
H        8.06691933       2.12490249      -0.90258992
H        2.88283396       4.88480997      -1.03402030
H        5.55144835       5.51414537      -2.95844173
H        4.83116055       7.72531366       2.12265372
H        9.72197914       6.16712141      -0.42481044
H        9.56154156       8.06901741       1.98555410
H        8.22637463       3.51133800       3.54733729
H        4.89463615       3.38043666       3.85766792
15
Properties=species:S:1:pos:R:3 energy=-1460.0 pbc="F F F"
C        3.86345053      -0.57060283      -0.42248607
O        6.18877745       0.77427751      -0.35640234
C        6.14134550       3.38024759      -0.37902236
C        4.01173735       4.76401854      -0.42161679
N        8.48084545       4.53592873      -0.35935032
C       10.84062195       3.49890351      -0.26204833
N       11.47677898       1.15749502      -0.14144599
H        4.29995823      -2.59151363      -0.43730152
H        2.80338979      -0.13944289      -2.14610529
H        2.73394227      -0.17657600       1.26519060
H        2.13916993       3.93960667      -0.43512833
H        4.07313442       6.81348324      -0.43688577
H        8.41353321       6.44700861      -0.41606101
H       12.33879662       4.94923067      -0.29152805
H        9.81565285       0.13789332      -0.13367923
17
Properties=species:S:1:pos:R:3 energy=-1646.72998046875 pbc="F F F"
C        6.84545755      -2.13361430       1.60592711
O        5.02899599      -0.38495612       0.66884965
C        5.86109877       1.98704708       0.07109150
C        8.18070030       2.97854853       0.32928479
C        8.99432182       5.59850264      -0.40211484
C        7.04215908       7.25409174      -1.72373259
O        9.79600048       6.83933449       1.84790647
H        5.87774754      -3.92496109       1.96554196
H        7.65671682      -1.47629189       3.39192605
H        8.32645416      -2.47881055       0.20327784
H        4.27461720       3.03866076      -0.69175315
H        9.69937801       1.84575224       1.12117457
H       10.65204620       5.43738461      -1.63272333
H        5.40382290       7.61236477      -0.50878984
H        6.39267874       6.39910412      -3.49181700
H        7.85904980       9.10604191      -2.15963578
H        8.34818649       6.88553858       2.98009801
15
Properties=species:S:1:pos:R:3 energy=-1519.050048828125 pbc="F F F"
O        4.21783113      -0.71454322       2.63722610
C        4.64080811      -0.03732209       0.08027557
C        5.65540218       2.56908274       0.00616051
C        7.81843948       3.38969636      -0.99815333
C        8.04787159       6.15342093      -0.62136084
O        5.69022989       6.94629335       0.47205359
C        4.26257944       4.72388077       1.13863564
H        3.69679570      -2.47563577       2.63815212
H        2.84957480      -0.14891042      -0.94703627
H        5.96811438      -1.38870299      -0.75214881
H        9.22360229       2.24062943      -1.92587662
H        9.58692074       6.62568235       0.67533141
H        8.31664658       7.15631723      -2.40781355
H        2.35722542       4.92105484       0.36218491
H        4.16446495       4.59602165       3.19998670
19
Properties=species:S:1:pos:R:3 energy=-1861.52001953125 pbc="F F F"
C        2.01907778      -0.12203851       0.30632460
C        4.88583040      -0.32488170       0.26594117
C        6.12643528       2.28396082       0.08106925
C        9.01834011       2.11938453      -0.04232987
C       10.16532803       4.67234802      -0.73591608
C       10.07169247       1.32458460       2.49213314
O       11.34795666      -0.58632535       2.79704022
H        1.16841769      -2.00630331       0.34774742
H        1.31944454       0.86069465      -1.37384975
H        1.37541831       0.91043228       1.97859991
H        5.45824718      -1.48659086      -1.35132432
H        5.51569462      -1.30402446       1.97869444
H        5.54233980       3.43801665       1.70220864
H        5.42158651       3.23373723      -1.62200868
H        9.59172058       0.72111946      -1.45830166
H        9.68031120       6.12513161       0.65681213
H        9.49424839       5.30361080      -2.58881140
H       12.23117638       4.55063057      -0.81314915
H        9.63516521       2.57862568       4.10210419
15
Properties=species:S:1:pos:R:3 energy=-1430.949951171875 pbc="F F F"
N        1.91365004       1.66367710       2.01284170
N        4.43125677       1.25604427       1.86517859
C        5.48997545       2.48060560       0.02755221
C        8.28232956       2.25850630      -0.44871548
C        9.56980038       4.75239658      -0.16406602
C       11.63220882       5.56618834      -1.94927144
O        9.09553528       6.49950504      -2.17981791
H        1.21872222       0.81866717       3.60699582
H        0.98082453       0.81583256       0.54669780
H        4.41239691       3.72219348      -1.26350868
H        8.52398777       1.51248014      -2.36453867
H        9.10802650       0.89627820       0.87282670
H        9.56936550       5.46586275       1.75325012
H       12.28786850       4.26271200      -3.38421607
H       13.05368042       6.87147903      -1.26719368
15
Properties=species:S:1:pos:R:3 energy=-1419.6400146484375 pbc="F F F"
N        1.93190479       0.01617606       0.27391580
C        4.64880180       0.04756441      -0.15187728
C        5.87521505       2.01448584       1.60902619
C        7.83801699      -0.03016003       2.32869053
O       10.21423435       0.03458199       0.99246526
C        5.89821339      -2.03487611       1.45421982
H        1.03441715      -1.48889637      -0.52897215
H        1.02145362       1.58217323      -0.38319868
H        5.25629234       0.12723526      -2.12641430
H        4.73673105       2.64314103       3.22360826
H        6.63930702       3.68218803       0.65511137
H        8.21722889      -0.10539003       4.36269712
H        9.78896999       0.09620596      -0.79289126
H        6.68012524      -3.61621761       0.37584764
H        4.76717424      -2.79779625       3.01534152
17
Properties=species:S:1:pos:R:3 energy=-1610.3199462890625 pbc="F F F"
C        2.58697844      -0.09167062      -0.96663272
C        5.32961369      -0.37144458      -0.16765650
N        6.62558746       2.01698041      -0.37433586
C        9.11541557       2.48755980       0.13959406
N       10.70924854       0.83986986       0.97237748
C       10.05748177       5.19037867      -0.33491617
O        8.05338955       6.94723797       0.03821026
H        1.59509897      -1.89626455      -0.78342378
H        2.44938731       0.52613753      -2.93638873
H        1.61146390       1.30668890       0.20518646
H        6.25336838      -1.78446841      -1.36753809
H        5.40696001      -1.04339337       1.78974068
H        5.63436985       3.51381350      -1.07451713
H        9.82517719      -0.86095923       1.18572760
H       10.70359802       5.33106852      -2.29369283
H       11.62170219       5.65028095       0.93494201
H        7.66008043       6.86299419       1.83433831
15
Properties=species:S:1:pos:R:3 energy=-1628.7900390625 pbc="F F F"
C        1.88972616       0.00000000       0.00000000
C        4.13880253       0.00000000       0.00000000
C        6.79575777       0.00000000       0.00000000
C        8.21271229      -2.08741045      -0.13855472
C       10.96647739      -1.47852170      -0.10527664
C       10.99688339       1.36651766      -0.60493910
C        8.38393974       2.33403850       0.15295443
H       -0.12264322      -0.00359048      -0.00032125
H        7.48796415      -3.99522114      -0.23266308
H       11.78435135      -1.93808424       1.73992753
H       12.00278473      -2.50127935      -1.57359385
H       11.31072903       1.71660829      -2.62515092
H       12.51369095       2.32517576       0.42363879
H        7.74239683       3.81845617      -1.13691592
H        8.39085674       3.07911968       2.08512378
19
Properties=species:S:1:pos:R:3 energy=-1781.6199951171875 pbc="F F F"
N        4.25267744      -0.80540127      -2.72523069
C        4.48745728       0.03936300      -0.10933956
C        6.04408121       2.45435739       0.03303241
C        4.77358055       4.90399027      -0.98809999
C        6.05332184       6.32776690       1.21482933
C        6.06123972       3.78678441       2.65151262
N        8.50938034       3.43969846       3.87427878
H        3.21013451      -2.42457533      -2.77963591
H        5.99096107      -1.26862979      -3.41390371
H        5.39097309      -1.45108294       1.00756419
H        2.59359241       0.33831766       0.67160869
H        7.93992996       2.18354082      -0.78191197
H        2.70395255       4.91083145      -0.88337135
H        5.35072184       5.48990011      -2.88315511
H        7.90912771       7.09998465       0.70600170
H        4.92235851       7.83229113       2.06817293
H        4.40935469       3.46279097       3.85169649
H       10.03506947       3.84738803       2.77245498
H        8.79920769       1.66227865       4.55389977
15
Properties=species:S:1:pos:R:3 energy=-1546.800048828125 pbc="F F F"
O        5.43500376      -1.78632033      -1.35606742
C        4.44397449       0.17574453       0.17939170
C        6.26797581       2.31827831       0.17521541
C        6.31213903       4.18345690      -1.97380006
C        5.34637547       4.98851776       0.58390647
C        6.86178446       6.66415691       2.07830191
C        8.12808990       8.06844997       3.33158708
H        4.22620249      -3.16729450      -1.30086863
H        4.19700623      -0.54569620       2.10171556
H        2.59497190       0.72724223      -0.56805170
H        8.07192707       1.76559007       0.97627032
H        4.95342588       3.95389295      -3.48932266
H        8.14218712       4.85824013      -2.60256863
H        3.32023001       5.27804279       0.73846716
H        9.25744724       9.31270313       4.43994951
21
Properties=species:S:1:pos:R:3 energy=-2046.050048828125 pbc="F F F"
C        5.68573236      -1.54309368      -2.33452988
C        4.73869610       0.07870709      -0.14671834
C        5.71615696       2.84709930      -0.11627485
C        4.73525667       4.28187370      -2.45585036
C        4.62364960       4.16448402       2.24667645
C        8.58491230       2.86590195       0.14237197
C       10.27546120       3.93314362      -1.41372299
H        4.90450048      -3.45411706      -2.17804170
H        7.74710226      -1.71216750      -2.32498670
H        5.09615660      -0.78193086      -4.16410589
H        5.26696920      -0.86642051       1.62331259
H        2.66519403       0.08140940      -0.19764645
H        5.50560379       3.52158022      -4.22017431
H        5.23612881       6.29150295      -2.37376070
H        2.67014527       4.17002106      -2.58095026
H        5.19967604       3.20291567       3.99023223
H        2.55211306       4.18192625       2.20281601
H        5.26371861       6.13163233       2.37863612
H        9.32568550       1.88454831       1.79726183
H        9.73709774       4.94953299      -3.10810804
H       12.28301239       3.80621076      -1.00898147
18
Properties=species:S:1:pos:R:3 energy=-1700.9100341796875 pbc="F F F"
C        1.72951519      -0.17400599      -0.00884392
C        4.59318733       0.08050233      -0.00134171
C        5.61110735       2.80860543      -0.02078699
C        4.83785009       4.24496746      -2.40637732
C        4.83732080       4.29309893       2.33706212
O        8.31719494       2.66315317      -0.04866045
H        1.20316970      -2.17539597       0.01303911
H        0.89418060       0.66943550      -1.70094252
H        0.88223755       0.71006459       1.65638280
H        5.36151218      -0.94212294      -1.63485873
H        5.34507132      -0.91545892       1.65604258
H        5.40193319       3.20505118      -4.10631800
H        5.79771757       6.07864428      -2.50175166
H        2.79976153       4.58292580      -2.48782444
H        5.38902664       3.28186846       4.05758238
H        2.80055523       4.64016581       2.40465760
H        5.80633450       6.12271261       2.40063238
H        8.85289478       1.79762089       1.48160195
9
Properties=species:S:1:pos:R:3 energy=-1053.93994140625 pbc="F F F"
C        1.80414045      -0.08120153      -0.00000000
C        4.33017492      -0.03898505      -0.00000000
C        5.69408512       2.27131844      -0.00000000
C        6.84810305       4.22544670      -0.00000000
C        8.31383133       6.72436380      -0.00000000
N        9.42289257       8.61567688      -0.00000000
H        0.78960317      -1.86391246      -0.00000000
H        0.68731230       1.64041460      -0.00000000
H        5.39208794      -1.79612803      -0.00000000
16
Properties=species:S:1:pos:R:3 energy=-1612.3499755859375 pbc="F F F"
C        1.83193827       0.07078914      -0.38688365
N        4.32684946       0.98825115       0.31639683
C        6.54200506      -0.57664990      -0.74355054
C        8.02235985       1.99677908      -0.19418825
C        5.48096180       2.92077971      -1.53154743
C        5.53689766       1.71475637      -4.07192516
C        6.24864388      -0.65040594      -3.53514838
H        0.41447362       1.44299483       0.23655592
H        1.44320273      -1.69597256       0.61771369
H        1.49241126      -0.27404809      -2.39613485
H        7.07243252      -2.28981900       0.26548761
H        8.28000546       2.52497649       1.79433274
H        9.79477215       2.30359507      -1.21571755
H        4.89253855       4.88575459      -1.35701239
H        5.10586977       2.55755544      -5.87311745
H        6.54635143      -2.22449112      -4.78918982
18
Properties=species:S:1:pos:R:3 energy=-1631.5899658203125 pbc="F F F"
C        2.81969810      -0.33911136       1.69521666
N        5.47567034       0.34876785       1.46604955
C        5.84877777       2.99750257       0.65909868
C        4.79317713       4.91822004       2.54587674
C        8.70963478       3.51659131       0.24337783
N        9.95163822       1.54846048      -1.27422345
H        2.67078781      -2.37527227       2.03510284
H        1.76090348       0.09002655      -0.03072695
H        1.92362785       0.60346514       3.30318451
H        6.25546598      -0.74468440       0.07642052
H        4.89813232       3.26882935      -1.16669798
H        5.56968451       4.61803722       4.44081879
H        2.73173141       4.81180954       2.66695166
H        5.26882124       6.84749842       1.96410573
H        9.68586731       3.64152122       2.06942010
H        8.94454670       5.33959150      -0.70947880
H       10.02628231      -0.04786676      -0.19244970
H       11.78943443       2.05638099      -1.54640067
15
Properties=species:S:1:pos:R:3 energy=-1524.6099853515625 pbc="F F F"
C        2.10326529      -0.75965101       0.69396412
C        4.56497383       0.36392346      -0.29037532
O        5.58166504      -1.36528933      -2.10371876
C        4.15934372       2.91724586      -1.48235786
C        3.95965648       3.39139700      -3.96885943
C        4.02284908       5.11082125       0.26664037
O        4.27612877       4.89563799       2.55708289
H        1.23595643       0.43350318       2.14393210
H        2.44487095      -2.63282323       1.50856841
H        0.73718214      -1.02797318      -0.84098482
H        5.93910694       0.48316517       1.25419235
H        7.28506422      -0.78580481      -2.47784662
H        4.03494310       1.85869682      -5.33526373
H        3.68233919       5.27811861      -4.72452307
H        3.69123983       6.96827078      -0.61988688
15
Properties=species:S:1:pos:R:3 energy=-1559.6500244140625 pbc="F F F"
C        1.88972616      -0.04401172       0.31507403
C        4.76210976       0.00000000       0.00000000
C        5.51106501      -1.37341511      -2.43496871
C        8.33314419      -1.72174835      -2.58656263
O        9.35265160      -3.80702329      -2.63219953
C        5.67299557       2.57223845       0.00000000
C        6.42374611       4.69232225       0.00000000
H        1.31914222       0.90156943       2.06719041
H        1.18642676      -1.98933363       0.38945365
H        0.93972301       0.91961634      -1.25383329
H        5.59561157      -1.00437057       1.61259782
H        4.90852594      -0.33434924      -4.12279654
H        4.63697243      -3.25085807      -2.50271559
H        9.47234631       0.01950197      -2.70960283
H        7.08747435       6.59484196       0.01216984
15
Properties=species:S:1:pos:R:3 energy=-1647.72998046875 pbc="F F F"
C        2.27415323      -0.44641000      -1.19918239
C        4.67637300      -0.06345700      -0.50690013
C        5.88670492       2.37205982      -0.30983949
C        8.35077572       2.65230632       0.27586222
C        9.05622864       5.39547062       0.36014402
C        6.59871578       6.64773512      -0.25751299
C        4.81829119       4.88473415      -0.62888193
H        1.51588166      -2.34951544      -1.29911113
H        1.00792325       1.08946490      -1.68529558
H        5.83284760      -1.70317233      -0.05461308
H        9.67326260       1.14137566       0.64105177
H       10.50041485       5.83961296      -1.05015862
H        9.72243309       5.93778419       2.24023247
H        6.31829929       8.66416740      -0.37588543
H        2.86671448       5.25067949      -1.09316874
12
Properties=species:S:1:pos:R:3 energy=-1264.0699462890625 pbc="F F F"
C        1.89463937      -0.01666738      -0.15665829
C        4.74565029       0.03341036       0.06657505
C        5.89517069      -2.20132303      -1.15312982
N        7.40205717      -1.68051457      -2.98880982
O        7.45965624       1.00777209      -3.24970531
C        5.89980078       2.09336305      -1.47426987
O        5.52552128       4.35676384      -1.22705591
H        1.06389689       1.68283892       0.68147302
H        1.10654807      -1.66885495       0.80829257
H        1.28544843      -0.09777443      -2.13484240
H        5.38630533       0.14074680       2.02701473
H        5.48802948      -4.12750196      -0.49268940
11
Properties=species:S:1:pos:R:3 energy=-1180.3800048828125 pbc="F F F"
N        1.96043968      -0.06001770      -0.22924268
C        4.47041178       0.18477742      -0.12328573
C        6.04481792       2.24745131      -0.04452195
C        8.53893566       1.27582967       0.05415955
C        8.30347538      -1.31292498       0.03412845
O        5.82765102      -1.98640454      -0.06922067
H        0.81966871       1.40744913       0.22909150
H        1.21696472      -1.79057217       0.12863366
H        5.47126722       4.20592546      -0.06683961
H       10.28678131       2.32906866       0.12583686
H        9.63616753      -2.85972261       0.07927401
14
Properties=species:S:1:pos:R:3 energy=-1487.3499755859375 pbc="F F F"
C        1.97204256      -0.03681187       0.21918933
C        4.50015593      -0.00806913       0.06549791
C        6.09419680       2.32183099      -0.05531228
N        8.34727955       1.40752470      -1.21473491
C        8.51697636      -1.18228829      -1.29996145
O       10.36425972      -2.34324145      -2.05318737
C        6.11532402      -2.32613945      -0.27450162
H        0.92313123      -1.80126810       0.19842124
H        0.88724530       1.69937408       0.36267623
H        6.56853676       3.02991128       1.82710063
H        5.28325844       3.81881523      -1.22357881
H        9.83679962       2.48946857      -1.72717190
H        5.31827497      -3.64798403      -1.64568686
H        6.51553011      -3.24097490       1.53366399
9
Properties=species:S:1:pos:R:3 energy=-1052.5699462890625 pbc="F F F"
N        1.77095687      -0.08288339      -0.01082813
C        3.96479654      -0.04414400      -0.00393063
C        6.67067671       0.09361703       0.00428968
C        8.03464317       2.31489563       0.00141729
S       11.20909977       1.64237988       0.01377610
C       10.50188828      -1.52421534       0.02182634
N        8.08576012      -2.10853744       0.01598708
H        7.35141277       4.24043226      -0.00704868
H       11.97215176      -2.94750023       0.03118048
19
Properties=species:S:1:pos:R:3 energy=-1799.4000244140625 pbc="F F F"
C        1.44358075       0.53838295      -1.45516467
C        2.88323069       1.00440836       0.98396152
C        4.99739981       2.91968346       0.55616528
N        4.50168657       5.45715094       0.84009665
C        2.27294374       6.52860689       1.98292744
N        7.13849735       1.96310425      -0.10145940
C        9.26111317       3.62052631      -0.62833393
H       -0.05236431      -0.85731208      -1.15244949
H        2.70240283      -0.17428944      -2.93500924
H        0.57460904       2.27929306      -2.15663099
H        3.71563625      -0.77361608       1.64542234
H        1.59816027       1.65439856       2.46548796
H        6.02389908       6.61568546       0.81917739
H        2.10895324       5.94832897       3.96071482
H        0.56686115       5.96843529       0.95982969
H        2.38712096       8.59347248       1.93156469
H       10.84768963       2.48663402      -1.31719577
H        9.89318848       4.59876204       1.08130133
H        8.81013012       5.00155687      -2.10256600
15
Properties=species:S:1:pos:R:3 energy=-1584.5899658203125 pbc="F F F"
C        0.74782133       0.80642176      -0.15320010
C        3.44553757       0.11404497       0.29472169
C        5.38479328       1.73102689       0.05255328
C        8.01926041       0.87218422       0.53668225
O        8.53954029      -1.29603088       1.15715492
C        9.97193336       2.86805630       0.20378807
C       12.41899681       2.33940530       0.57124531
H       -0.04249994      -0.37596101      -1.65424740
H        0.53127760       2.78674126      -0.71025360
H       -0.35434255       0.49595863       1.56860495
H        3.80507684      -1.83605790       0.84954530
H        5.08313656       3.67939138      -0.49586412
H        9.37655640       4.74861717      -0.33935702
H       13.04041386       0.45857984       1.11675251
H       13.85702133       3.77992463       0.33361226
17
Properties=species:S:1:pos:R:3 energy=-1617.81005859375 pbc="F F F"
C        4.45684338      -0.93790889      -2.72865105
C        4.67822504       0.10692070      -0.06096257
C        6.15891981       2.57053781      -0.07390719
C        4.82371473       4.95675182      -1.10911810
C        6.04572535       6.29758787       1.16068864
N        6.13745260       3.81679320       2.44689298
H        3.42580891      -2.73048425      -2.71604657
H        6.32576370      -1.27140772      -3.55174017
H        3.44667149       0.37881449      -3.96409750
H        5.64204216      -1.28896332       1.12850666
H        2.78008962       0.37722713       0.72559816
H        8.08309555       2.33339596      -0.82046241
H        2.75338769       4.90185499      -1.03793204
H        5.42682123       5.60203648      -2.97592187
H        7.91324711       7.10202551       0.76594383
H        4.87726974       7.72024918       2.09701014
H        7.71386194       3.51592994       3.50920248
16
Properties=species:S:1:pos:R:3 energy=-1659.75 pbc="F F F"
C        1.06811106       2.29276681       1.28807509
C       -1.61235213       1.42666769       0.81721205
C       -1.63620043       0.02273341      -1.62389839
C        1.02498746      -0.04898170      -2.65257072
C        2.35915303      -0.02467982      -0.02031456
N        1.08485401      -2.21167874       1.28792393
C       -1.57019234      -1.41009474       0.81384838
H        1.48655307       4.07761335       0.33306423
H        1.50501573       2.42079592       3.30496097
H       -3.18059802       2.50932956       1.50271022
H       -3.22160506      -0.04410621      -2.88273931
H        1.40440667      -1.77413154      -3.72839189
H        1.46446216       1.62765896      -3.77945232
H        4.41921902      -0.06632939      -0.02173185
H        1.47859728      -2.13212132       3.17353058
H       -3.15775132      -2.51462078       1.45775366
19
Properties=species:S:1:pos:R:3 energy=-1841.7900390625 pbc="F F F"
C        5.69123173      -1.95235169      -1.33820951
C        4.50983143       0.26552543       0.05512331
C        6.27602625       2.47737432       0.17765315
C        6.51796770       4.40750265      -1.92168140
C        5.03205729       4.26796532      -4.31105089
C        5.21993399       5.10258198       0.51557398
O        6.60224962       6.73585320       2.17766380
H        4.39009857      -3.55903459      -1.36776483
H        7.44338560      -2.55572224      -0.41874442
H        6.14365101      -1.44974124      -3.29214859
H        4.05144072      -0.32070541       1.98948479
H        2.71606565       0.76885396      -0.84818470
H        7.97545671       2.00339317       1.22323859
H        8.38858891       5.16688919      -2.27439880
H        3.05651855       3.74568295      -3.99724317
H        5.87529087       2.88381648      -5.59519577
H        5.05000973       6.10797262      -5.25721788
H        3.18035245       5.32813931       0.48883435
H        8.41512012       6.45634365       2.08470798
13
Properties=species:S:1:pos:R:3 energy=-1350.31005859375 pbc="F F F"
C        1.81704724      -0.01256668      -0.01523119
C        4.61040258       0.04261332      -0.00222988
C        6.21241808       1.98408020       0.00795575
O        8.77193832       1.28221703       0.02037125
C        8.58821964      -1.33189785       0.01768784
N       10.57575798      -2.71491289       0.02845928
N        6.11585283      -2.04339862       0.00326923
H        1.02612126       1.89908028      -0.00846597
H        1.10343003      -1.00440836       1.65368044
H        1.11885011      -0.98645592      -1.70113146
H        5.87151146       3.98667955       0.00854156
H       10.04858112      -4.56937647       0.02433967
H        5.45715094      -3.82508922       0.00179524
17
Properties=species:S:1:pos:R:3 energy=-1699.02001953125 pbc="F F F"
C        4.44304848      -1.19819975      -2.82357216
C        4.55289841       0.29623348      -0.40101877
C        2.98718452      -0.26403254       1.51922643
C        6.52836132       2.25899744      -0.24642029
C        6.58119822       4.35615873      -2.17481017
C        5.81192827       4.92434263       0.48938239
O        7.61387682       6.31733561       1.96472931
H        6.31162882      -1.96047747      -3.28175521
H        3.82146096       0.00196532      -4.38924789
H        3.13210773      -2.79490495      -2.69692254
H        1.57880950      -1.74797773       1.37277269
H        3.08289933       0.75864947       3.29640055
H        8.33924770       1.54598498       0.40228489
H        5.11786985       4.45090961      -3.60501170
H        8.40519905       5.02359104      -2.82234383
H        3.83070159       5.35726023       0.80430526
H        9.28503704       5.55655050       1.93041193
16
Properties=species:S:1:pos:R:3 energy=-1622.31005859375 pbc="F F F"
C        1.84960723       0.09766105      -1.08492959
C        4.08721304      -0.16431169       0.63254803
C        4.91718102      -2.75195146       1.87927592
C        7.42811680      -1.14103556       1.95832324
N        6.63503647      -0.42157900      -0.74035692
C        6.86558294       1.18421578       3.41838241
C        4.59728813       1.85472846       2.52236867
H        0.08080469       0.01761225      -0.01207535
H        1.78745413      -1.42604399      -2.48593473
H        1.88116562       1.89429927      -2.11469793
H        4.92638397      -4.42211056       0.65150195
H        4.05918837      -3.23929286       3.69662547
H        9.25336552      -2.06142664       2.19297051
H        7.36751318       1.25394666      -1.34210241
H        8.00423717       2.08383870       4.84548473
H        3.42611122       3.43748736       3.03981352
17
Properties=species:S:1:pos:R:3 energy=-1754.969970703125 pbc="F F F"
C        4.01351357      -1.24799407       2.74426031
C        4.92313337      -0.31758738       0.17702955
C        5.68690395       2.44114828       0.20475182
C        3.53762412       4.29840899       0.41039184
C        8.13855934       3.09246135       0.00000000
C        9.02546406       5.59700966       0.00000000
C        9.77621460       7.71709347       0.00000000
H        3.58250499      -3.26922631       2.65359116
H        2.29535580      -0.26603565       3.34177279
H        5.46028805      -0.96699178       4.19545650
H        3.43359470      -0.60433441      -1.23686349
H        6.51348925      -1.50664091      -0.42430022
H        2.13145995       3.92628407      -1.06312215
H        4.13266087       6.26619959       0.19416936
H        2.61152601       4.13271761       2.25327158
H        9.56819344       1.62575030      -0.16068341
H       10.44425201       9.61543655       0.00045353
19
Properties=species:S:1:pos:R:3 energy=-1786.1500244140625 pbc="F F F"
C        2.76202369       1.52790022       4.58748007
O        4.36488962       3.66181684       4.25851679
C        5.02211714       4.13906717       1.67123604
C        2.76992273       5.19485712       0.20760532
C        7.28217316       5.97109985       1.63941300
C        6.84611893       8.43683338       3.07764578
O        6.59514427       8.00042057       5.71538210
H        2.56645584       1.18247724       6.61509991
H        3.58407354      -0.15270877       3.71140313
H        0.88199186       1.89713383       3.81552720
H        5.64300585       2.36862063       0.78737330
H        1.85149693       6.73441696       1.23850763
H        1.33221912       3.73425007      -0.07196077
H        3.33905149       5.87419462      -1.66061568
H        7.80065727       6.39647722      -0.32085660
H        8.89320278       5.00274754       2.51906157
H        5.16439486       9.43164158       2.40843701
H        8.46616173       9.69622231       2.81162906
H        5.56788921       6.46843815       5.89747620
17
Properties=species:S:1:pos:R:3 energy=-1724.7099609375 pbc="F F F"
C        1.99832869       0.20573449       0.13033441
C        4.51134300       0.02834589      -0.06219089
C        5.93145370      -2.43304133      -0.06050903
C        7.84527349      -2.51269317      -2.21307707
C        9.39509487      -0.08348810      -2.26092505
C        7.63742256       2.19956565      -2.27929306
O        5.95577431       2.20565057      -0.15682837
H        1.08443820       2.04120660       0.17137927
H        0.80729103      -1.45629859       0.25961056
H        4.64853716      -4.05172396      -0.21308552
H        6.92554379      -2.61585331       1.74967849
H        9.09198284      -4.15201187      -1.99951923
H        6.85231686      -2.73392344      -4.02077007
H       10.59159374      -0.01685636      -0.57096183
H       10.63452816      -0.05274226      -3.91675973
H        8.75663185       3.93777347      -2.18378639
H        6.52796459       2.27957654      -4.03025675
14
Properties=species:S:1:pos:R:3 energy=-1399.9200439453125 pbc="F F F"
C        1.88330102      -0.10476641       0.04106375
C        4.76210976       0.00000000       0.00000000
C        5.73756742      -1.48800814      -2.23862624
N        5.48451424      -0.71834159      -4.54930782
O        6.54081440      -2.51909947      -6.17252588
C        5.67299557       2.57223845       0.00000000
C        6.42374611       4.69232225       0.00000000
H        1.13033974       0.81874275       1.73497641
H        1.21524513      -2.06477141       0.02961201
H        1.05970168       0.84236431      -1.60779786
H        5.46877289      -0.96793664       1.69185293
H        6.63569784      -3.32457638      -1.80784428
H        6.32224894      -1.73287892      -7.82548809
H        7.09448528       6.59113789      -0.01825476
15
Properties=species:S:1:pos:R:3 energy=-1507.0799560546875 pbc="F F F"
C        1.69219303       4.16238642      -3.67572522
O        3.73421216       5.74403048      -2.93623757
C        5.06809425       4.79124928      -0.75900853
C        7.66057158       3.74519157      -1.25169790
C        7.37142467       6.30057383      -0.02573807
C        7.95998001       6.67598677       2.68395925
O        7.67871332       4.99590683       4.24988079
H        0.77374834       5.00699949      -5.32184696
H        0.30934817       4.01867247      -2.14529276
H        2.38776350       2.28399849      -4.18651819
H        3.97766566       3.95194650       0.76705873
H        8.32280731       3.67993927      -3.18751454
H        8.28525829       2.17378974      -0.09480756
H        7.80320835       7.92758989      -1.19697142
H        8.65753460       8.56584549       3.21678638
13
Properties=species:S:1:pos:R:3 energy=-1359.050048828125 pbc="F F F"
N        1.78516757      -0.07014664       0.05221313
C        3.97757125      -0.03341036       0.03669848
C        6.70864105       0.01245330       0.01627054
C        7.96738768       1.98978710       1.77488744
C       10.02259731      -0.00483770       2.31842947
C        8.03386784      -2.02839422       1.64905059
H        7.47881794       0.08556680      -1.91249728
H        6.85874224       2.50766659       3.44791865
H        8.63160801       3.71631646       0.85430741
H       11.62064457       0.06281450       1.00249970
H       10.74120331      -0.05355484       4.25354671
H        8.75383472      -3.67107654       0.62296712
H        6.94466782      -2.68626451       3.28526998
15
Properties=species:S:1:pos:R:3 energy=-1605.989990234375 pbc="F F F"
C        1.88237512      -0.00100155       0.31377012
C        4.72121620      -0.02649396      -0.12252984
C        5.60256577      -2.30971766      -1.66978085
C        6.66801214      -1.21182466      -4.04849243
C        6.65361214       1.30517709      -4.14581347
C        5.51204777       2.16294265      -1.76579785
O        5.23970032       4.39682579      -1.25230265
H        1.31927454       1.68744981       1.37046719
H        1.28764045      -1.66371489       1.39121640
H        0.84026670       0.01829255      -1.47627294
H        5.74306679       0.06379715       1.67563903
H        4.06311893      -3.62644124      -2.09047174
H        7.07513475      -3.35416937      -0.65560269
H        7.39831543      -2.39125943      -5.55447197
H        7.30388594       2.55082798      -5.61524582
11
Properties=species:S:1:pos:R:3 energy=-1189.550048828125 pbc="F F F"
O        1.74495423      -0.21310441       0.01292573
C        4.32790756      -0.01150843      -0.00272121
C        5.56788921       2.18342733      -0.00442196
C        4.50599527       4.66594172       0.00916517
C        6.52512980       6.16411638       0.00043464
N        8.72717094       4.79400826      -0.01727210
N        8.16335201       2.46422172      -0.02006889
H        1.31311405      -2.00256157       0.01001555
H        5.29523945      -1.81372130      -0.01385169
H        2.53790212       5.16518831       0.02303576
H        6.55126476       8.20360374       0.00585815
10
Properties=species:S:1:pos:R:3 energy=-1103.8900146484375 pbc="F F F"
O        1.73971963       0.02023897      -0.01029901
C        4.27327538      -0.04102596      -0.00022677
C        5.84271193       2.02242279       0.00693529
O        8.29436684       1.24137998       0.01638393
C        8.25538158      -1.33002710       0.01511781
C        5.80692053      -2.21062064       0.00496998
H        1.13695371       1.75629258      -0.01194307
H        5.56507349       4.04490232       0.00668963
H       10.08509064      -2.23836160       0.02203421
H        5.21416998      -4.16295338       0.00177634
13
Properties=species:S:1:pos:R:3 energy=-1383.1600341796875 pbc="F F F"
C        1.84516644      -0.00247554      -0.01521230
C        4.64137506       0.09822796      -0.00128501
C        6.20045614       2.09908891       0.00956201
N        8.64678192       1.24260831       0.02086258
C        8.65222454      -1.40425551       0.01740438
O       10.46946049      -2.81100535       0.02505777
N        6.08864069      -2.06101084       0.00323143
H        1.02455282       1.89690709      -0.00873053
H        1.14557087      -1.00414383       1.65407729
H        1.16178477      -0.98602128      -1.70188737
H        5.75234509       4.08849812       0.01014783
H       10.23702431       2.29202986       0.03053797
H        5.46990681      -3.86269474      -0.00202201
18
Properties=species:S:1:pos:R:3 energy=-1771.3499755859375 pbc="F F F"
C        1.90903914       0.05973424      -1.65615594
C        4.68005800       0.06052793      -1.12559652
C        6.09408331       2.15691447      -0.90788114
C        8.80631256       2.22660756      -0.36681473
N       10.52626610       1.08731067      -2.20842838
C       10.50804901       3.83244014      -2.00125766
C       12.73896503       5.13243961      -0.88142496
H        1.52897739      -0.96389264      -3.41205168
H        1.14810312       1.97340322      -1.84743404
H        0.89833802      -0.88563907      -0.11990312
H        5.57399273      -1.77844012      -0.90270329
H        5.17641354       3.98724651      -1.10894799
H        9.31992149       1.96132791       1.60108936
H        9.54343796       0.50313956      -3.76329517
H        9.71547890       4.86415529      -3.58231592
H       13.57781410       4.05656147       0.67484009
H       12.18361282       6.98627949      -0.15212296
H       14.19494247       5.42016935      -2.32207656
17
Properties=species:S:1:pos:R:3 energy=-1574.8900146484375 pbc="F F F"
C        1.72375154       0.02536012       0.01880278
C        4.60889101       0.00959981       0.11277886
C        5.52419853      -1.56690419       2.35660195
O        5.50889206      -1.17586315      -2.15047050
C        5.64461184       2.74580979       0.17993972
N        8.40053177       2.79944038      -0.19415046
H        1.04524529       1.04507530      -1.65180957
H        0.91173619       0.91192514       1.70328569
H        0.97763091      -1.90091336      -0.13515322
H        4.96669149      -0.71720773       4.15938187
H        7.58218575      -1.79265094       2.34008574
H        4.74309921      -3.48429585       2.27107286
H        7.19122028      -0.44559741      -2.42104149
H        5.15273523       3.68490934       1.95854998
H        4.80547905       3.83621955      -1.36827505
H        9.27084541       2.06705809       1.36281383
H        8.97500896       4.63874865      -0.28757852
8
Properties=species:S:1:pos:R:3 energy=-884.77001953125 pbc="F F F"
O       -0.68808711      -2.07631779      -0.00767229
C       -2.17084169       0.02917737      -0.00396843
C       -0.61291379       2.10245252       0.00147399
N        1.86529195       1.34331179       0.00130391
C        1.70776439      -1.13449705      -0.00417629
H       -4.18782187      -0.27142137      -0.00583925
H       -1.13546085       4.07836914       0.00546131
H        3.22776556      -2.49904943      -0.00623610
19
Properties=species:S:1:pos:R:3 energy=-1837.510009765625 pbc="F F F"
C        2.38846254       1.74914944      -0.74715990
O        4.95091248       1.36294603      -0.04522115
C        6.44612026       3.55627561      -0.50739145
C        9.08812809       3.01477456       0.32582659
C       11.05499268       2.11758924      -1.53561032
C       11.22162819       4.74523449      -0.44879106
C       13.24299240       5.39461994       1.40315950
H        1.32089972       0.04637388      -0.27202609
H        2.24166870       2.07552409      -2.78294301
H        1.58037794       3.34432387       0.29063988
H        5.69612598       5.14649916       0.58832842
H        6.37208080       4.03774023      -2.52212310
H        9.13006020       2.22288489       2.21536374
H       10.52233505       1.92088771      -3.50430822
H       12.38611507       0.69566488      -0.89597583
H       10.80048370       6.31837511      -1.69300568
H       13.72846317       3.79209447       2.61859345
H       12.62282276       6.95296383       2.61182833
H       14.95476341       5.98992157       0.40901232
12
Properties=species:S:1:pos:R:3 energy=-1286.760009765625 pbc="F F F"
O        4.38703680       7.02193880       1.81062222
C        5.18264961       7.03448677      -0.35948262
N        7.36953497       5.89964962      -1.20965147
C        8.96979332       4.57253265       0.34067982
C       11.08057880       3.48686600      -0.52190459
C       12.72605801       2.08450031       1.23726034
O       14.67175770       1.07134247       0.49711135
H        4.17635155       8.00000477      -1.90735734
H        7.79279613       6.06783485      -3.07037044
H        8.40899754       4.46096325       2.31926084
H       11.69213200       3.56099987      -2.47149730
H       12.11344719       2.00167346       3.22708535
19
Properties=species:S:1:pos:R:3 energy=-1868.5 pbc="F F F"
C        5.68737650      -2.92259383       0.27571103
C        4.71006680      -0.47732592       1.43692887
C        6.21855974       1.85480404       0.58908433
C        4.98101568       4.26981735       1.57285690
C        8.94482994       1.78201175       1.52181530
C       10.89723778       3.04608727      -0.12793446
O        9.54491234       0.81005001       3.54786634
H        4.52171803      -4.51576519       0.89576799
H        7.63662910      -3.31057334       0.84451860
H        5.61501884      -2.84345198      -1.78989196
H        4.74154949      -0.65123743       3.50194597
H        2.72526860      -0.24562660       0.88528001
H        6.24841738       1.90512741      -1.48307598
H        4.86511898       4.26163483       3.64006615
H        3.06502247       4.47609997       0.82053798
H        6.06386662       5.94511604       1.02151036
H       10.43310261       5.04486942      -0.35698816
H       10.95559311       2.11220360      -1.96875453
H       12.75790024       2.89256597       0.75509679
11
Properties=species:S:1:pos:R:3 energy=-1178.3299560546875 pbc="F F F"
C        1.93005288       0.09975864       0.20743524
C        4.68669081       0.00587705      -0.51349527
O        5.56934404      -1.84216177      -1.62246215
C        6.29524469       2.28959227       0.04849037
C        6.22368097       2.92151666       2.73282743
N        6.12732363       3.44735169       4.86026239
H        1.07710612       1.83210838      -0.52555174
H        1.72894824       0.01324698       2.25996137
H        0.94486308      -1.51635408      -0.62360960
H        5.61265659       3.86246800      -1.10908031
H        8.24026394       1.88623011      -0.53382874
13
Properties=species:S:1:pos:R:3 energy=-1299.9000244140625 pbc="F F F"
C        2.54018879      -0.07708193       0.09157613
N        4.28680611       1.45748913       1.58302355
N        5.82498646       2.93825960      -0.02254443
C        8.25668621       2.17010474      -0.60272813
O        9.20606518       0.16848798       0.06956082
C        9.70618153       3.93238783      -2.10742259
C       10.91369724       5.39562178      -3.35424495
H        1.36829400      -1.21626556       1.35852408
H        3.55414033      -1.36266267      -1.17435145
H        1.27947688       1.11788642      -1.03233850
H        5.46136522       0.24645808       2.55131936
H        5.24064541       4.70281029      -0.50765604
H       12.00760365       6.67598677      -4.45678663
16
Properties=species:S:1:pos:R:3 energy=-1639.1400146484375 pbc="F F F"
C        1.43118405      -2.45698404       1.55250454
C        3.11523247      -0.35162133       0.50017273
N        1.00937831       0.59490466      -1.05992854
C       -0.43628109       2.62670040       0.20598015
C       -2.97127318       1.51731777       0.74122620
C       -2.97669649      -0.95967853       0.27918813
C       -0.44750604      -1.76670492      -0.56279826
H        2.22940445      -4.36067533       1.44683099
H        0.77728218      -2.11471701       3.48871779
H        4.68867493      -1.06811106      -0.64413208
H        3.90827489       0.95253533       1.89719057
H        0.43597871       3.31399393       1.95443034
H       -0.62281597       4.22574902      -1.09362233
H       -4.56871510       2.59990406       1.40387750
H       -4.57345867      -2.21405983       0.49493816
H       -0.46757492      -3.07934642      -2.16311288
14
Properties=species:S:1:pos:R:3 energy=-1447.6700439453125 pbc="F F F"
C        1.80372465      -0.02031456       0.09743428
C        4.60212564       0.10002320       0.06578137
C        6.21423197       2.15262485      -0.07666619
C        8.72684956       1.21845758      -0.05578472
C        8.58219147      -1.37587178       0.10327353
N        6.09177780      -2.00668120       0.20348571
O        5.21475601      -4.46120882       0.42613325
H        0.98112690       1.87799096       0.14263652
H        1.12640905      -1.05197275       1.75865471
H        1.10324097      -0.97596794      -1.60044682
H        5.64385605       4.11531353      -0.17944840
H       10.44859791       2.32058358      -0.13698624
H       10.03231049      -2.81306529       0.18160269
H        4.16346359      -4.52916336      -1.07461166
18
Properties=species:S:1:pos:R:3 energy=-1716.1400146484375 pbc="F F F"
N        1.53319156       0.85889941       1.53863394
C        3.42278528       0.40162349      -0.40591317
C        5.65116930       2.14593530       0.00676522
C        7.15935993       1.55339265       2.37368488
O        9.63628006       2.60460949       2.27660966
C        6.94334507       3.20567465      -2.33827162
C        5.35142088       4.90829897      -0.72523910
H       -0.01164071      -0.23564886       1.18905354
H        0.92870593       2.68384576       1.40837514
H        2.56895041       0.70369619      -2.26840830
H        4.04397631      -1.57145846      -0.32915249
H        7.34980631      -0.48936349       2.64767647
H        6.20897865       2.33778024       4.03571796
H       10.56041336       1.62922740       1.02649927
H        6.21585751       2.69450378      -4.18532753
H        8.96053314       3.55635118      -2.34429979
H        6.30987120       6.31743002       0.41649565
H        3.55786300       5.54422951      -1.48152637
13
Properties=species:S:1:pos:R:3 energy=-1453.510009765625 pbc="F F F"
C        1.74393380       0.00423299      -0.24428490
C        4.25874329       0.01396508       0.06340031
C        5.65026236       2.38026118       0.23292765
C        8.16357899       2.26818156       0.54512930
O        9.51700115       0.03386389       0.71548814
C        8.18081379      -2.21054482       0.54843634
C        5.66772318      -2.34174871       0.23631026
H        0.67882740      -1.74431169      -0.37373114
H        0.66603398       1.74489748      -0.37624449
H        4.67334938       4.17468834       0.10926396
H        9.39452744       3.89017129       0.69613731
H        9.42325211      -3.82274580       0.70167422
H        4.70436001      -4.14381027       0.11512212
11
Properties=species:S:1:pos:R:3 energy=-1148.93994140625 pbc="F F F"
C        1.79125249       0.01761225      -0.01424854
C        4.59949875       0.08411171      -0.00236216
C        6.08694029       2.23274922       0.00357158
S        9.20464802       1.37435997       0.01647841
N        8.68406677      -1.71545553       0.01443751
C        6.20049381      -2.09680223       0.00432747
H        0.99121803       1.92510176       0.00512116
H        1.08721614      -0.98985744       1.64952302
H        1.10118127      -0.95055115      -1.70700848
H        5.52302694       4.19551325       0.00088817
H        5.56556463      -4.04410839       0.00147399
17
Properties=species:S:1:pos:R:3 energy=-1632.5 pbc="F F F"
C        1.86699271       0.26473173      -0.31395909
C        4.65156078       0.01625164       0.02171295
C        6.16933203      -1.58175743      -1.77020097
C        6.44209528       1.26229930      -1.82655263
C        8.78633881       2.45135283      -0.88535559
N       10.83466911       2.09627318      -2.16615534
N       12.85964298       3.27956295      -1.14851880
H        1.19740605       2.00826859       0.57464683
H        0.89796007      -1.32819402       0.58194119
H        1.32256258       0.30900803      -2.30962324
H        5.17257738      -0.03877718       2.00350666
H        5.22460127      -2.47285771      -3.35490632
H        7.72280025      -2.68274975      -1.01024759
H        5.62378740       2.22373533      -3.44247627
H        8.67988968       3.59616780       0.85897499
H       14.47023773       2.48551893      -1.86791873
H       12.93286991       5.11229515      -1.76139486
13
Properties=species:S:1:pos:R:3 energy=-1286.2900390625 pbc="F F F"
C        2.00239158      -0.01062026       0.25244853
N        4.74610376       0.06404282      -0.02796795
C        5.84664249       2.04451370       1.60084367
C        7.58065510      -0.03303241       2.65018964
O        9.42088985      -0.07468197       4.02135611
C        5.93317318      -2.04498601       1.36090517
H        1.23068416      -1.63353598      -0.77512789
H        1.16059422       1.69139934      -0.57213348
H        1.38140869      -0.14399713       2.22515249
H        4.61633635       2.87032390       3.04457545
H        6.83827639       3.53768063       0.57659322
H        6.98422003      -3.36514878       0.17139816
H        4.74224901      -3.08554482       2.69505191
15
Properties=species:S:1:pos:R:3 energy=-1525.050048828125 pbc="F F F"
C        1.72227752       0.04979428       0.22831671
C        4.57909012       0.11281665       0.02645617
C        5.97367001       2.05396223       1.74516213
C        7.94678974      -0.04480541       2.20041609
O       10.14019489      -0.09733979       2.86979485
C        6.04066086      -2.10899115       1.31602418
O        7.06525135      -3.98046255      -0.37735942
H        0.95535105      -1.54853606      -0.83826363
H        0.90412056       1.78248417      -0.55113864
H        1.09855449      -0.12935175       2.19206333
H        5.12877321       0.32790527      -1.96731830
H        4.97725534       2.60557318       3.47029305
H        6.69822884       3.72546268       0.77665854
H        5.06546736      -2.99408197       2.91454363
H        8.83004761      -4.15223837       0.12844469
20
Properties=species:S:1:pos:R:3 energy=-1909.18994140625 pbc="F F F"
C        1.71073127      -0.31630236      -0.67529362
C        4.57587719      -0.46957806      -0.84230763
C        5.83853579       1.44087839       0.92186511
N        8.59118652       1.18627560       0.72013682
C        9.80238724       3.19771886      -0.73735225
C        9.95430279       3.14199090       2.11088085
C       12.35947037       2.44744110       3.39908814
H        0.84444302      -1.72295785      -1.91998065
H        1.03428495       1.55246675      -1.24992156
H        1.05866241      -0.67873293       1.25451362
H        5.15740299      -0.12778328      -2.80148125
H        5.17569542      -2.39135385      -0.34984499
H        5.27169323       1.03687382       2.87521839
H        5.16199493       3.35330009       0.48167229
H        8.63098431       4.61977577      -1.62867939
H       11.44503212       2.63454270      -1.82230067
H        8.87001514       4.51359177       3.17704535
H       13.50269794       1.13678360       2.27698779
H       11.95905590       1.55295801       5.22072744
H       13.48973465       4.14284658       3.75154090
12
Properties=species:S:1:pos:R:3 energy=-1331.9200439453125 pbc="F F F"
O        2.07172561      -0.00691640       0.89463413
C        4.28829861      -0.01997440       0.32389906
C        6.26196671       2.05999041      -0.12848248
C        8.00145912      -0.02398062      -1.25158453
C        6.20521832      -2.12244582      -0.25212726
C        8.26847744       0.05296902      -3.97534132
N        8.47347546       0.11453630      -6.15659523
H        6.95400333       2.90768385       1.62635505
H        5.63952875       3.54627895      -1.42075276
H        9.85240841      -0.07660950      -0.31497955
H        5.54383278      -3.51250958      -1.62937856
H        6.87268829      -3.09068489       1.44906092
15
Properties=species:S:1:pos:R:3 energy=-1414.8399658203125 pbc="F F F"
C        9.99655724      -1.66144717      -1.85431266
O       11.09669876       0.66979456      -1.09169483
N        9.16995239       2.48030329      -0.89467192
C       10.15663528       4.58617640      -0.15650712
C        8.44877625       6.76221466       0.16501088
C        7.05521679       7.11277819       2.61961389
N        9.28726673       8.62302780       2.04468369
H       11.49545002      -3.07583165      -1.99717593
H        9.09442043      -1.45620406      -3.70376873
H        8.61433506      -2.29403305      -0.45198470
H       12.19251347       4.83537436       0.22402704
H        7.60983276       7.51120806      -1.54619277
H        7.27113724       5.68800020       4.07396603
H        5.24920559       8.07283401       2.58752632
H        8.78544998      10.40666485       1.50138736
15
Properties=species:S:1:pos:R:3 energy=-1622.969970703125 pbc="F F F"
C        1.88972616       0.00000000       0.00000000
C        4.13880253       0.00000000       0.00000000
C        6.86756706       0.00000000       0.00000000
C        7.92139196      -2.30469108      -1.43883753
C        8.53012943      -1.26199687      -3.99694085
C        8.53173542       1.26468027      -3.99684644
C        7.92167521       2.30416203      -1.43466115
H       -0.12411721       0.00000000      -0.00782347
H        7.54497719      -0.00130391       1.95794523
H        6.57044554      -3.86666322      -1.55987442
H        9.65975094      -3.00037479      -0.55678892
H        8.95197296      -2.42784452      -5.62193537
H        8.95452404       2.43298459      -5.61908197
H        9.66254807       2.99944901      -0.55289608
H        6.57254314       3.86911988      -1.55567920
19
Properties=species:S:1:pos:R:3 energy=-1849.989990234375 pbc="F F F"
C        5.94742155      -3.83364964      -0.88904053
C        5.16242933      -1.45960557       0.46075302
C        3.40088344      -1.50095272       2.28860950
C        6.38117075       0.98141038      -0.39070088
C        9.22792912       1.04906261       0.09159502
C       10.36032867       3.58087993      -0.68281472
O       13.01962757       3.55036068      -0.30090109
H        5.80238533      -3.57961369      -2.93765497
H        4.75494766      -5.44630432      -0.37690589
H        7.90028334      -4.32511091      -0.42018062
H        2.50449181      -3.25193524       2.87578511
H        2.80038524       0.20936276       3.24770212
H        5.49810171       2.59034204       0.57372087
H        6.00539827       1.24302411      -2.41151738
H       10.19014072      -0.46105537      -0.95536995
H        9.63535404       0.69558930       2.09534717
H        9.55751705       5.13404560       0.42171130
H       10.01180649       3.96045017      -2.68528199
H       13.31988621       3.21531224       1.48141301
15
Properties=species:S:1:pos:R:3 energy=-1476.52001953125 pbc="F F F"
C        1.72717190      -0.50187349      -0.98352689
C        4.10885048      -0.79309916       0.59528261
N        5.42699099       1.63289344       0.79536682
N        7.60885000       1.57571030       2.14536834
C        8.83220196       3.67922115       2.10844302
C       11.11750412       3.57275391       3.56502509
C       13.03389454       3.48934150       4.78274584
H        0.74659300      -2.31725788      -1.13436484
H        2.17361975       0.14307116      -2.89876437
H        0.42095539       0.85736877      -0.12910609
H        5.34945583      -2.19544601      -0.28893912
H        3.60705256      -1.48309481       2.48228765
H        4.19723272       2.95199800       1.49396074
H        8.29381943       5.42721796       1.11431479
H       14.72773170       3.39037657       5.86366892
13
Properties=species:S:1:pos:R:3 energy=-1343.760009765625 pbc="F F F"
C        0.66384190       2.73955488       0.66503245
C       -1.44129407       1.49422538      -0.77577037
C       -2.57131267      -0.82603711       0.18152709
C       -0.87295896      -2.68630242       0.39140007
C        1.65545678      -1.71101475      -0.44036287
N        1.25984263       0.93193734      -1.33588517
H        1.07933593       4.69887972       0.23944719
H        1.02878582       2.19678783       2.60523319
H       -2.43793559       2.53365040      -2.22898865
H       -4.55337048      -0.99108577       0.64874297
H       -1.23227155      -4.58003473       1.05068779
H        3.03469229      -1.78051889       1.10135126
H        2.36778903      -2.85208797      -2.01201034
14
Properties=species:S:1:pos:R:3 energy=-1364.510009765625 pbc="F F F"
C        1.92160583       0.39225045      -0.09584691
C        4.77877712       0.05089033      -0.17153044
C        5.72919607      -1.03753519      -2.66411710
O        4.80931520       0.37010285      -4.76277113
C        6.03956461       2.57497859       0.26044205
O        7.29509878       3.05009365       2.15141535
H        1.32333744       1.08886015       1.76001537
H        0.95756203      -1.40429330      -0.44597536
H        1.26844084       1.76657271      -1.49934649
H        5.35809183      -1.20885777       1.36853969
H        5.12867880      -3.00634646      -2.88504481
H        7.79706669      -0.99756753      -2.74195480
H        3.18823266      -0.34850329      -5.25472355
H        5.73598003       4.02163935      -1.21396005
16
Properties=species:S:1:pos:R:3 energy=-1553.0899658203125 pbc="F F F"
C        1.94949818      -0.26089558       0.33761847
C        4.75870848       0.08233537      -0.24216840
C        5.39879656      -1.05571437      -2.83840656
O        8.06157207      -1.12680590      -3.24001098
C        5.42461014       2.86435246      -0.14395934
C        7.13545465       3.85419083       1.43757141
H        1.46962106       0.53165555       2.18922877
H        1.44828606      -2.26903200       0.36488721
H        0.76163524       0.67039925      -1.08092332
H        5.85605335      -0.92946178       1.19939029
H        4.53290510       0.01576032      -4.38441038
H        4.71564150      -3.00542045      -2.95980239
H        8.69408226       0.58092070      -2.97697997
H        4.43327856       4.11559677      -1.44201219
H        8.17072201       2.69070554       2.77498722
H        7.53195715       5.86776972       1.43390524
17
Properties=species:S:1:pos:R:3 energy=-1645.6800537109375 pbc="F F F"
C       -2.37098265      -0.00200311       1.76816010
C       -1.13260734      -1.93194258      -0.04826361
C        1.71980190      -2.28571820       0.48038727
N        3.18534136      -0.00173855      -0.20688722
C        1.72021770       2.28273249       0.48681235
C       -1.13207829       1.93090332      -0.04217869
N       -1.60605931       0.00222988      -2.12223792
H       -1.72824907      -0.00538572       3.73149109
H       -4.44497585      -0.00221098       1.74701405
H       -2.15699005      -3.71474814      -0.26386246
H        2.02928233      -2.74599886       2.47601366
H        2.44451189      -3.87711334      -0.62774813
H        3.22682071       0.00153068      -2.14351630
H        2.44628835       3.87665987      -0.61765701
H        2.03034067       2.73717380       2.48327017
H       -2.15547824       3.71493697      -0.25375241
H       -3.43157268       0.00387394      -2.74424148
16
Properties=species:S:1:pos:R:3 energy=-1576.489990234375 pbc="F F F"
C        1.45370960      -0.60741466      -0.10149719
C        4.22111893      -0.89540893      -0.53611529
C        5.31343746      -0.56691784      -3.14945531
N        5.69535112       1.34661889      -1.18816531
C        8.23767567       1.31541944      -0.07587250
C        9.65173817       3.58668137      -1.06882906
O       11.87020111       3.51634574      -1.75884366
H        1.09985840       0.03877718       1.83122027
H        0.50287503      -2.42678618      -0.35422915
H        0.59112525       0.75264013      -1.40166652
H        5.05957174      -2.29446769       0.70324266
H        4.06011438      -0.03276785      -4.67960453
H        6.88705015      -1.75179505      -3.70849299
H        9.33054161      -0.39191031      -0.49762160
H        8.10528088       1.52559483       1.97858107
H        8.63062477       5.40501356      -0.97766870
14
Properties=species:S:1:pos:R:3 energy=-1416.530029296875 pbc="F F F"
N        5.72632360       7.75949907      -3.28545904
C        4.73314047       6.97881508      -1.21431911
N        5.83742094       5.36984587       0.45806962
C        8.10594273       3.94045687      -0.17209736
C       10.46071148       5.60704422      -0.12081019
C       12.72592640       4.06871271      -0.53913885
N       14.50706863       2.82300520      -0.83896279
H        4.49314499       8.95724487      -4.18413734
H        2.83133888       7.59796524      -0.61879081
H        4.66768026       4.51735258       1.71717525
H        7.88236904       3.02229571      -2.01756620
H        8.30627251       2.41431403       1.21730483
H       10.60072136       6.56855583       1.70918167
H       10.35687065       7.08896732      -1.56233108
15
Properties=species:S:1:pos:R:3 energy=-1477.489990234375 pbc="F F F"
C        2.13892436      -0.03618826       0.30649468
N        4.84969854      -0.05586030      -0.00096376
N        6.19193316       2.22271466      -0.28122905
C        8.51317883       1.49698436      -1.61836147
C        8.89227676      -1.30294728      -1.09560657
C        6.24365520      -2.18743348      -0.63009137
O        5.52931976      -4.37630320      -0.70596391
H        1.42296374      -1.96223497       0.52383208
H        1.27994931       0.81547350      -1.37007034
H        1.65615594       1.07385576       1.98130226
H        6.65776968       2.82718158       1.49671984
H        8.24173832       1.81298435      -3.64811635
H       10.13547039       2.62874126      -1.01502860
H        9.72296238      -2.27940655      -2.71377897
H       10.01479244      -1.62527788       0.61079729
17
Properties=species:S:1:pos:R:3 energy=-1575.18994140625 pbc="F F F"
C        8.29712582      -0.18267983      -3.96424866
O        8.41840839      -1.15621006      -1.46123075
C        8.08515549       0.75449204       0.39582205
C       10.31909561       2.57010317       0.58109081
C       12.85907650       1.43855405       1.23924458
N        9.91618633       4.95425701       0.10871594
N       11.95229149       6.48786449       0.24466284
H        8.33214283      -1.77792990      -5.27774048
H        9.93578339       1.01567113      -4.35714149
H        6.54652166       0.87726754      -4.26325989
H        7.89561605      -0.18426719       2.23059487
H        6.32861710       1.79644930       0.05115489
H       12.62794399      -0.50553954       1.90030861
H       13.77171898       2.52902055       2.73789191
H       14.05676556       1.42776370      -0.44535175
H       11.37235260       8.33091450       0.15902045
H       13.09196568       6.25769567      -1.29988587
15
Properties=species:S:1:pos:R:3 energy=-1430.5400390625 pbc="F F F"
C        5.10477400      -1.51591945      -1.85246074
N        4.75991774      -0.00691640       0.42853320
C        5.67821121       2.60409927       0.12175506
C        4.76813793       4.18593216       2.35193419
C        8.56397438       2.73573756       0.06122713
O        9.98627663       0.96723741       0.55204570
H        4.39637232      -3.42896485      -1.51659966
H        7.09348392      -1.67939961      -2.39985776
H        4.03524542      -0.72852725      -3.44134235
H        5.77466297      -0.83597702       1.84966397
H        4.96009636       3.42766094      -1.63603044
H        5.39265490       3.38361144       4.15705729
H        2.70245957       4.31018162       2.38224554
H        5.52202559       6.11415243       2.24966216
H        9.34463882       4.60218239      -0.43197250
17
Properties=species:S:1:pos:R:3 energy=-1683.469970703125 pbc="F F F"
C        0.78491664      -1.17004287      -0.01028011
C        3.64046288      -1.07697380       0.25617129
C        4.68206120       1.55142736      -0.30863008
O        7.38561678       1.55078483      -0.08337472
C        8.30525208       1.95348549       2.28486776
C       11.13636398       1.93222606       2.23586726
O        7.03905964       2.30527687       4.18496847
H        0.09023442      -3.07258129       0.40258726
H        0.20416601      -0.67608732      -1.93196154
H       -0.12245426       0.14424279       1.30249369
H        4.51436663      -2.45460296      -1.02103794
H        4.17878914      -1.65711975       2.17118192
H        3.83361173       2.99627423       0.91109365
H        4.24298334       2.08026719      -2.26239896
H       11.81349087       0.17761536       1.38004816
H       11.85510254       2.02692032       4.17240191
H       11.82936478       3.56901240       1.18412125
15
Properties=species:S:1:pos:R:3 energy=-1547.7900390625 pbc="F F F"
C        1.94398022       0.21299103      -1.07245743
C        4.07791567      -0.09435403       0.76123840
C        4.68349743      -2.68348670       2.14109755
C        7.25739861      -1.17015624       2.21504259
O        6.61190605      -0.58755362      -0.53069180
C        6.75180244       1.18036079       3.66805291
C        4.54857063       1.93275523       2.66687608
H        0.12012989       0.23929602      -0.09476977
H        1.89753067      -1.34510708      -2.43432641
H        2.11823177       1.97476375      -2.14470696
H        4.65688992      -4.38414574       0.96544218
H        3.74507809      -3.03352070       3.94778895
H        9.03689671      -2.17558503       2.46142507
H        7.88837814       2.05186462       5.11112356
H        3.42764187       3.57674146       3.08603621
14
Properties=species:S:1:pos:R:3 energy=-1419.199951171875 pbc="F F F"
N        3.17184854      -1.10943937       0.09046119
C        5.70772886      -0.70658749       0.06835140
O        7.22929859      -2.41571259       0.36677694
C        6.41873837       1.96905684      -0.32331324
C        8.81152821       2.71723723       0.06990097
C        9.80486298       5.34104633      -0.23821887
O        8.03224277       6.90609884      -1.50080156
H        1.87695158       0.28825882       0.00130391
H        2.57416606      -2.89060068       0.43577084
H        4.96313906       3.28334236      -0.90712523
H       10.19656563       1.33150101       0.70413083
H       11.56109905       5.32526731      -1.33063173
H       10.20414352       6.16422987       1.61558354
H        8.03738308       6.37812805      -3.26110029
11
Properties=species:S:1:pos:R:3 energy=-1227.75 pbc="F F F"
N        1.95709491      -0.00075589      -0.48940128
C        4.34221268      -0.10293338      -0.02519005
C        5.94504070      -2.35775471       0.26344672
C        8.26108932      -1.44917428       0.72497451
N        8.36517525       1.13464820       0.77284127
C        6.04646206       2.18888879       0.33172253
O        5.37772608       4.37055874       0.22451836
H        1.43760920       1.87744296      -0.57071620
H        5.29792261      -4.27612877       0.11674728
H        9.95502090      -2.55090356       1.04369569
H        9.93011379       2.18335176       1.08933258
15
Properties=species:S:1:pos:R:3 energy=-1551.719970703125 pbc="F F F"
O        4.79487753      -1.00489962      -2.77481723
C        4.31301641      -0.27365124      -0.23039541
C        5.51741457       2.29424095       0.31429926
C        8.35755920       2.15219021       0.35577875
C        9.78290462       2.75739384       2.36045694
C       12.45939922       2.59514189       2.26950431
C       14.72291279       2.46386266       2.19540834
H        4.08657074      -2.68635917      -2.99357176
H        5.04689169      -1.73522210       1.03802657
H        2.26239896      -0.15157494       0.01456979
H        4.80442095       3.00332284       2.12550735
H        4.96569014       3.64998722      -1.15207160
H        9.25047398       1.52576482      -1.39015818
H        8.92553520       3.39538431       4.11179829
H       16.73110580       2.34821153       2.12051845
14
Properties=species:S:1:pos:R:3 energy=-1277.3699951171875 pbc="F F F"
C        1.67947519      -0.03210645       0.04267002
C        4.54802275       0.02001220      -0.05051238
O        5.36215448      -1.10456383      -2.36841273
C        5.59022570       2.72976613       0.09813347
N        8.34531403       2.70113683      -0.26102787
H        0.97060114       0.79478103       1.79966176
H        0.98900706      -1.97808969      -0.09854922
H        0.86647725       1.00249970      -1.55528235
H        5.31487370      -1.12257290       1.49811816
H        7.04990673      -0.39737162      -2.65532970
H        5.11739731       3.60047626       1.91412246
H        4.77206850       3.88463449      -1.41270256
H        9.17091656       1.79153597       1.22692358
H        8.99914074       4.51476383      -0.19392370
13
Properties=species:S:1:pos:R:3 energy=-1320.6800537109375 pbc="F F F"
O        1.69219303       0.00275900       0.05457529
C        4.42352772      -0.03713312       0.02770339
C        5.76852131       1.90195262       1.74754310
N        7.66641092      -0.05038010       2.40380716
C        5.77233839      -2.03217363       1.71018326
C        6.86970234      -4.14275217       0.35181031
N        7.74549627      -5.79970169      -0.79037797
H        1.17321754      -1.31237698      -1.12302649
H        5.12072325       0.04338811      -1.92702937
H        4.64694977       2.54079342       3.36785102
H        6.54192972       3.55946922       0.78472769
H        9.22091866      -0.02286569       1.25725365
H        4.63045263      -2.63446712       3.33519650
14
Properties=species:S:1:pos:R:3 energy=-1428.239990234375 pbc="F F F"
C        3.45916247      -1.60626721      -1.87731063
C        4.03590679       0.13976415      -0.13668390
C        5.81669044       2.33549356      -0.40468484
C        6.65852547       3.05173755      -3.04098511
C        6.88916683       5.80752516      -2.63467503
N        5.73735952       6.68535995      -0.67718339
O        4.59116507       4.58135748       0.52581632
H        2.12853074      -3.10740900      -1.43639970
H        4.26994944      -1.60981989      -3.76012039
H        3.14355946      -0.01387059       1.71335804
H        7.46177244       2.00057745       0.81386727
H        5.24882793       2.74297523      -4.52050829
H        8.45622253       2.19784594      -3.58467817
H        7.90411949       7.00347614      -3.99488115
21
Properties=species:S:1:pos:R:3 energy=-2047.1199951171875 pbc="F F F"
C        1.81973064      -0.04340701       0.06791676
C        4.68362951      -0.01540127       0.02721206
C        5.99062061       1.97618115       1.73259544
C        8.04894829      -0.02073030       2.32978678
C       10.44196510       0.19103241       0.74704653
C        6.04697227      -2.07622313       1.62928402
C        6.88516045      -4.43446922       0.23353235
H        1.09623015      -1.67545009      -0.97358692
H        1.06546533       1.66465974      -0.82138836
H        1.08423042      -0.13774213       1.99844205
H        5.37683773       0.07218754      -1.93033636
H        4.88435602       2.53041887       3.39568663
H        6.62500191       3.69154215       0.76758784
H        8.56352043      -0.06757661       4.33760166
H       10.03055286       0.29135796      -1.27811623
H       11.67550278      -1.43760920       1.07325101
H       11.49871922       1.89403474       1.26313078
H        4.94218206      -2.62787199       3.30199409
H        7.91817904      -3.98513007      -1.50074494
H        5.24620104      -5.58533144      -0.29060209
H        8.11221600      -5.59020662       1.43265808
11
Properties=species:S:1:pos:R:3 energy=-1263.3399658203125 pbc="F F F"
C        1.88972616       0.00000000       0.00000000
C        4.61849070       0.00000000       0.00000000
C        6.86756706       0.00000000       0.00000000
C        9.99077415      -0.00000000      -0.00000000
C       12.31207561      -0.00000000      -0.00001890
C       15.08806515      -0.00000000      -0.00000000
C       17.39449501       0.00000000       0.00000000
H        0.77191532       1.78197396       0.16189283
H        0.93488532      -0.79003781       1.68465304
H        0.71337163      -0.82201195      -1.53559148
H       19.34960556       0.00000000       0.00000000
17
Properties=species:S:1:pos:R:3 energy=-1693.5899658203125 pbc="F F F"
C        1.55913746      -0.25983733      -0.93794668
C        4.26683140      -0.02012558      -0.04648726
C        6.24036694      -1.31368089      -1.68684518
C        6.02287865       1.50802040      -1.73027110
C        4.65197659       0.07111040       2.84677792
C        3.21380043       1.82088339       4.57912779
O        2.57582903      -0.80014783       4.36526728
H        1.42479682      -0.32180145      -3.00366306
H        0.43435356       1.35119200      -0.29101783
H        0.70783472      -1.99768615      -0.20573449
H        5.61726761      -2.35601616      -3.33801222
H        7.87785244      -2.14039826      -0.77197200
H        7.51555443       2.59705067      -0.84393281
H        5.25478029       2.38731003      -3.41464067
H        6.52811575      -0.45997825       3.49769402
H        1.92944813       3.18367839       3.75815511
H        4.12001848       2.43341923       6.30767918
15
Properties=species:S:1:pos:R:3 energy=-1418.760009765625 pbc="F F F"
C        1.61084032      -0.05136276       0.13046670
C        4.45448112       0.00315584      -0.01122497
N        5.41151428       0.06990097      -2.63308764
C        5.92283630       1.93553305       1.60717428
O        7.73092651       0.00294797       2.36227107
C        5.98852301      -1.95605552       1.51181865
H        0.95894152      -0.11041670       2.09430790
H        0.84319580      -1.71751535      -0.82872051
H        0.78283793       1.63047457      -0.74776465
H        7.34124565       0.02248774      -2.73341322
H        4.88261747       1.63914847      -3.61663342
H        4.91714287       2.67617345       3.25832248
H        6.83364677       3.50058532       0.60824615
H        6.95371962      -3.43898034       0.44125104
H        5.01093006      -2.80869985       3.12538028
17
Properties=species:S:1:pos:R:3 energy=-1579.199951171875 pbc="F F F"
C        8.20366001      -3.30811667       2.63272858
C        9.19211960      -0.78321588       1.70562899
O        7.11990213       0.96621698       1.64719868
C        7.68468475       3.33544230       0.86528671
N        9.91027164       4.03537798       0.15325679
N       10.04568958       6.48828030      -0.57443893
C       12.55286503       7.35424709      -1.32243037
H        9.72426605      -4.70708084       2.72039294
H        6.71805191      -4.01525211       1.37755370
H        7.36290216      -3.11689544       4.51362991
H        9.97841549      -1.00095010      -0.19700395
H       10.65389824      -0.09193518       2.99771047
H        5.98691702       4.54326057       0.92271549
H        8.80122948       6.88448000      -2.00018072
H       13.90666485       7.10467100       0.22192943
H       12.48868942       9.36618233      -1.79348242
H       13.22921658       6.31644726      -2.97928548
10
Properties=species:S:1:pos:R:3 energy=-1063.43994140625 pbc="F F F"
N        1.87918150       0.13717522      -0.35328430
C        4.06298685       0.05843033      -0.18923718
C        6.76780844      -0.03898505       0.01082813
C        8.26677704      -1.42283154      -1.98139679
C        8.35988426       1.41039705      -1.85875356
H        7.47802448      -0.14552781       1.93301976
H        7.26892614      -2.28110743      -3.55363011
H        9.92289543      -2.46673512      -1.38010478
H       10.07913780       2.28808045      -1.17463481
H        7.42494202       2.46467543      -3.34821677
16
Properties=species:S:1:pos:R:3 energy=-1657.9100341796875 pbc="F F F"
N        1.96867895       0.05843033       0.27300873
C        4.71344948      -0.05296902      -0.05826026
C        5.49725103      -2.37069917      -1.65432298
C        6.39464426      -1.26390553      -4.10017681
C        6.48879051       1.26040959      -4.01134062
C        5.67052031       2.17292047      -1.57423639
C        5.82294559       4.57984591      -0.81507665
H        1.52510345       1.63705087       1.27654779
H        1.38870299      -1.44796491       1.31558955
H        5.62435389      -0.13071236       1.80047441
H        3.93909645      -3.69929004      -1.96225381
H        7.04170561      -3.40286756      -0.73544359
H        6.92361641      -2.38863277      -5.72056007
H        7.10741138       2.46775556      -5.53750229
H        5.20579863       5.13638878       1.05896473
H        6.56600475       6.04695368      -2.04084754
17
Properties=species:S:1:pos:R:3 energy=-1652.5799560546875 pbc="F F F"
N        1.89766300       0.21983184       0.32656357
C        4.62570953      -0.09117929       0.05461308
C        5.32292366      -2.73384786      -0.86500323
C        5.34762239      -2.51354361      -3.74075079
N        6.27755690       0.05843033      -4.30103540
C        4.28125000       1.94806194      -4.49280500
C        5.63285780       1.57108057      -2.01739597
H        1.52529240       2.00333643       0.95121253
H        1.25145221      -0.97717738       1.68901837
H        5.54714012       0.31654802       1.86236286
H        4.05287695      -4.21732092      -0.18606244
H        7.23468399      -3.19938183      -0.20063223
H        6.62078762      -3.92244792      -4.56240368
H        3.46275306      -2.84725046      -4.53460550
H        4.74130392       3.61748385      -5.58519888
H        2.34509349       1.31506038      -4.69853926
H        7.06098080       2.90654993      -1.42205667
21
Properties=species:S:1:pos:R:3 energy=-1932.3299560546875 pbc="F F F"
C        2.06618881      -0.45255160       0.25902477
C        4.94452524      -0.17372252       0.37834206
N        6.04101992      -1.66314793      -1.69351590
C        5.85038424       2.61968946       0.23237962
C        4.62652206       4.23510313       2.31489563
C        8.76247120       2.76890230       0.40861547
N        9.70440483       5.35752487       0.11990312
H        1.16397679       0.34462935       1.93952036
H        1.51329267      -2.44732761       0.18320894
H        1.28335083       0.48951465      -1.40952778
H        5.60403967      -1.00006199       2.16182780
H        5.35792160      -1.02413702      -3.37952948
H        5.45546913      -3.49457598      -1.55061483
H        5.26318979       3.40900922      -1.59702647
H        5.03931379       3.46630573       4.19211197
H        2.57265425       4.32669783       2.08975363
H        5.30376196       6.18896627       2.26194549
H        9.64606953       1.61278677      -1.06232846
H        9.39930916       2.03395009       2.23719001
H        9.21215057       6.01412916      -1.62323701
H       11.63103771       5.32454920       0.15115920
14
Properties=species:S:1:pos:R:3 energy=-1490.510009765625 pbc="F F F"
C        1.88507736       0.04554240      -0.22219400
C        4.72325706      -0.05775003       0.16752422
C        5.93914461      -2.34290147      -1.04515088
C        7.63668585      -1.65526783      -2.78027844
N        7.73561287       0.90145606      -2.93221235
C        6.06740046       2.05245042      -1.27707696
O        5.74832010       4.32386351      -1.04690826
H        1.10089779       1.77787328       0.59713459
H        0.95383924      -1.56958759       0.67688102
H        1.38511252       0.03724650      -2.23290038
H        5.22943926       0.04996436       2.16970801
H        5.49354744      -4.27040291      -0.53991365
H        8.81135845      -2.84726930      -3.95137954
H        8.85406590       1.90854776      -4.10820770
16
Properties=species:S:1:pos:R:3 energy=-1549.3800048828125 pbc="F F F"
C        0.42012390      -3.29127932       1.27796507
N        2.35363507      -2.19750571      -0.38646790
C        3.72948790      -4.26390266      -1.65173399
C        4.14188290      -0.64585167       1.15267622
C        5.45325851       1.29279947      -0.53929007
O        4.18893719       1.65604258      -2.74410915
O        7.35058117       2.47157288       0.03975984
H        1.24379885      -4.47840548       2.76208043
H       -0.91370147      -4.43688822       0.18443727
H       -0.68908864      -1.79236746       2.17796612
H        2.43302250      -5.36413860      -2.83337975
H        4.62958336      -5.54904842      -0.29931372
H        5.19215488      -3.51931262      -2.91250253
H        5.55554914      -1.81952286       2.10543847
H        3.10315704       0.45772946       2.56558657
H        2.75514507       0.45892000      -2.72334099
11
Properties=species:S:1:pos:R:3 energy=-1213.760009765625 pbc="F F F"
N        1.68801677       0.14104916      -0.04669513
C        4.31061649       0.07558905      -0.06606483
C        5.47561359      -2.52671504      -0.14093578
O        4.16293430      -4.42505836       0.09163282
C        5.77031660       2.15048933       0.00000000
C        8.42727184       2.15048933       0.00000000
N       10.60236549       2.15048933       0.00000000
H        0.92288554       1.55290139       1.00643039
H        0.96045333      -1.60018229       0.40056524
H        7.54172707      -2.63809538      -0.37446812
H        4.87647629       3.99437094       0.03970315
18
Properties=species:S:1:pos:R:3 energy=-1786.0899658203125 pbc="F F F"
C        1.76130033       0.04968090      -0.75424641
N        4.31303549      -0.00462983       0.29062098
C        5.77834797       2.25467014      -0.40587538
C        6.63770103       2.35915303      -3.18551135
C        7.58116531      -0.14369477      -4.11637163
C        7.13656950      -2.26466680      -2.80941796
C        5.66624928      -2.33795023      -0.37762398
H        0.76395959       1.75168169      -0.12343691
H        0.66106397      -1.55360055      -0.03977874
H        1.72086024      -0.00462983      -2.82086968
H        7.45784187       2.32347488       0.81129724
H        4.70919752       3.97245002       0.04654396
H        8.14577770       3.76716900      -3.36582899
H        5.07610655       2.96983695      -4.40136099
H        8.65509701      -0.19590791      -5.86529398
H        7.88535452      -4.04996634      -3.49047542
H        4.35253048      -3.94153404      -0.43730152
H        7.00079298      -2.76782513       1.14936924
17
Properties=species:S:1:pos:R:3 energy=-1724.050048828125 pbc="F F F"
C        4.35270071      -0.86829138      -2.85017943
C        4.52277613       0.12064011      -0.15852913
C        6.14593744       2.49591255      -0.04966200
C        5.00348473       4.95225430      -1.21103096
C        5.97858334       6.32553720       1.16828537
O        6.38451529       8.51792145       1.69663393
C        6.28823376       3.79872751       2.58877373
H        3.22088695      -2.59808993      -2.91074514
H        6.23176861      -1.29797733      -3.60242271
H        3.47205043       0.52215022      -4.10335112
H        5.35128880      -1.34420002       1.04881692
H        2.61721396       0.50043726       0.55918884
H        8.05231190       2.11615300      -0.78933859
H        2.94260597       4.99679518      -1.37131751
H        5.86861992       5.57174397      -2.97881317
H        8.08562756       3.58176804       3.57900906
H        4.71647310       3.40596676       3.87291813
15
Properties=species:S:1:pos:R:3 energy=-1548.3599853515625 pbc="F F F"
O        2.11078620      -0.62803161       0.19492525
C        4.46787930       0.44901782      -0.55998254
C        5.27783489      -0.75558811      -3.07358289
C        7.85162306      -0.01732879      -3.83251572
C        9.94604397       0.59116304      -4.45996141
C        4.06812668       3.25775552      -0.73739004
C        5.31470346       4.97445822       0.64449108
H        1.58818257       0.26894581       1.71256435
H        5.85165024      -0.01116828       0.91345584
H        3.92558479      -0.26800096      -4.56841278
H        5.18064642      -2.81947136      -2.89475799
H       11.80050850       1.14061975      -5.02136135
H        2.66441941       3.89984679      -2.09632993
H        6.74348783       4.43102980       2.01329541
H        4.94015980       6.97870207       0.41248941
14
Properties=species:S:1:pos:R:3 energy=-1318.72998046875 pbc="F F F"
C        5.56567812      -2.03164458      -0.74863392
N        4.37511301       0.25074777       0.22854348
C        6.13195324       2.38738561       0.33198708
C        6.42202663       4.05981207      -1.94278967
C        5.06091356       5.01682615       0.35500395
H        4.17449951      -3.55916691      -0.82779455
H        7.12534475      -2.64429379       0.46438131
H        6.28250790      -1.73601580      -2.66630912
H        3.65473032      -0.11164502       1.97958267
H        7.80863190       2.08814740       1.48560822
H        5.30608654       3.63866758      -3.60778952
H        8.28217793       4.81288671      -2.34435654
H        5.99787760       6.42325449       1.50975895
H        3.02957106       5.24654102       0.23009305
16
Properties=species:S:1:pos:R:3 energy=-1618.3499755859375 pbc="F F F"
C        1.81402373       0.04036455       0.38569310
C        4.62860060      -0.10888602      -0.03331587
C        5.70944834      -2.31567049      -0.69396412
C        6.18891001       2.27167749       0.31537640
N        5.40987015       4.24589348      -1.43704224
C        6.00299835       3.20599604       2.92907548
C        5.86355543       3.97876167       5.05813551
H        0.93998760       1.35174000      -0.95340461
H        1.38341177       0.67140079       2.30726123
H        0.89780891      -1.79839563       0.12719746
H        4.60407209      -4.02736521      -0.93932617
H        7.73330736      -2.47482324      -0.99887145
H        8.18330765       1.86168265      -0.07517330
H        3.63653231       4.82380962      -0.97744197
H        5.31260586       3.48919034      -3.20085597
H        5.74548531       4.67261219       6.94525385
16
Properties=species:S:1:pos:R:3 energy=-1613.9200439453125 pbc="F F F"
C        2.63488293      -0.23014975      -0.45064300
N        5.21915913      -0.33533192       0.48492262
C        6.63380814       1.93158352      -0.24575889
C        9.34959030       1.81005526       0.64717454
C       10.26731682       3.40570211       2.39522791
C       11.02592850      -0.00020787      -0.45243824
C       12.42621517      -1.53275692      -1.37120414
H        1.63521779      -1.95739722       0.09246430
H        2.57575345      -0.08522665      -2.51384592
H        1.60774124       1.36683893       0.37055638
H        6.10383415      -1.87398469      -0.26639470
H        5.70251322       3.60470939       0.55070400
H        6.62358475       2.15767050      -2.30799818
H        9.07525826       4.82173061       3.27716303
H       12.22369385       3.32055116       3.00821733
H       13.67116737      -2.89560843      -2.17292047
13
Properties=species:S:1:pos:R:3 energy=-1387.3699951171875 pbc="F F F"
C        1.83178711      -0.03664179      -0.01528788
C        4.63030148       0.11387490      -0.00077479
C        6.22946310       2.17645431       0.00718096
C        8.73901939       1.25625217       0.01946418
C        8.61070728      -1.34019375       0.01874608
N        6.11120415      -2.01837873       0.00625499
H        0.98641813       1.85166705       0.00149288
H        1.14967155      -1.05837893       1.64959860
H        1.16597998      -1.02190721      -1.70812345
H        5.64844799       4.13870811       0.00421409
H       10.45430470       2.36850715       0.02804354
H       10.07928944      -2.76308203       0.02587035
H        5.45917320      -3.81552720       0.00270231
13
Properties=species:S:1:pos:R:3 energy=-1263.4000244140625 pbc="F F F"
C        2.06303287      -0.54970241       0.33712715
N        4.78000546      -0.16627701       0.21217845
C        5.56541348       2.09011269      -0.17578232
N        4.29192686       4.33096886      -0.52179116
O        5.54016685       6.48147726       0.39274177
C        8.29671001       2.09447789      -0.30116564
C       10.56540203       2.09893775      -0.41076976
H        1.67184067      -2.57395816       0.49896330
H        1.11335111       0.12833130      -1.37233806
H        1.25147116       0.37739721       1.99921691
H        2.45938396       4.26439381       0.04533453
H        6.85694695       6.78577995      -0.86683625
H       12.57650566       2.06828642      -0.49701688
15
Properties=species:S:1:pos:R:3 energy=-1477.22998046875 pbc="F F F"
C        5.07108021      -1.45025146       2.36074042
O        4.48148537      -0.16491640       0.07619376
C        5.36920309       2.37266445       0.10431288
O        8.04698277       2.54455400       0.03463868
C        9.03215408       1.62119603      -2.29388189
C       11.76025677       2.11860967      -2.38368154
C       13.99230671       2.52219868      -2.47230983
H        4.27537298      -3.35420728       2.25353622
H        4.23173952      -0.48025501       3.98274899
H        7.11774778      -1.61123717       2.60462832
H        4.69037580       3.33924055       1.80538762
H        4.55703688       3.36804008      -1.52002013
H        8.10480881       2.57055664      -3.88361406
H        8.68809128      -0.41451144      -2.44001436
H       15.97183323       2.88175678      -2.54657602
15
Properties=species:S:1:pos:R:3 energy=-1491.06005859375 pbc="F F F"
C        3.38926172       0.28786197      -2.46499658
O        5.81035995       0.62910873      -1.34837627
C        6.39422846       2.96108747      -0.31896687
C        4.82072926       4.96000195      -0.32446599
C        8.92978764       3.11211443       0.84678626
C       11.18712234       3.36084008      -0.87855256
O       10.46861076       5.35482264       0.80179191
H        3.27151275      -1.66233540      -3.14134836
H        3.14166975       1.54048586      -4.09248543
H        1.88392472       0.56739026      -1.07357228
H        2.95152545       4.93949842      -1.15074873
H        5.41716433       6.73301840       0.52375650
H        9.13688278       1.90074325       2.48841023
H       10.88317871       3.66232705      -2.87924337
H       12.86946964       2.29208660      -0.42125776
15
Properties=species:S:1:pos:R:3 energy=-1472.0 pbc="F F F"
C        1.74179840      -0.02622940       1.74965966
C        0.52135652      -1.97113550      -0.05742878
C        1.41984570      -0.06736874      -2.08521819
N        0.61875302       1.88617349      -0.10712858
C       -2.14937449       1.45202780       0.12496759
C       -2.27806497      -1.42509913       0.17695396
H        3.81409097      -0.02345150       1.84244514
H        1.00452173       0.06455304       3.68260384
H        1.21864665      -3.90451431      -0.09429733
H        0.36955485      -0.01744217      -3.86923313
H        3.44742727      -0.07022222      -2.52263331
H       -2.89630771       2.29626298       1.86066210
H       -3.17077160       2.24943542      -1.48887742
H       -3.35462284      -2.18926668      -1.41525364
H       -3.06447434      -2.14277935       1.95032966
20
Properties=species:S:1:pos:R:3 energy=-1917.8800048828125 pbc="F F F"
C        4.93634272      -2.75094986      -0.66455996
C        3.79978561      -0.17927831      -0.02246884
N        2.01817083      -0.37837985       2.07618546
C        5.78919506       1.80294991       0.62459230
C        7.67686129       1.12193036       2.65799427
C        6.74403572       3.46120358      -1.51213992
C        5.00826550       4.55730152       0.44399115
H        6.33256674      -2.57492185      -2.18274713
H        3.46796870      -4.06527328      -1.29935682
H        5.88341665      -3.61181474       0.96264541
H        2.72540092       0.45899558      -1.67716968
H        2.91267276      -1.10690713       3.61472487
H        0.64330059      -1.64510107       1.62049687
H        8.92487431       2.71302319       3.10306263
H        8.87969112      -0.44448248       2.04543948
H        6.72655582       0.57821840       4.41132021
H        5.99508047       3.17751789      -3.39838910
H        8.70368195       4.06047344      -1.49363959
H        5.78499985       5.88850021       1.79352021
H        3.07713556       4.98216867      -0.09853032
11
Properties=species:S:1:pos:R:3 energy=-1018.4099731445312 pbc="F F F"
C        0.64791149       1.96563649      -0.25320441
C        1.82645810      -0.60170770       0.40459037
N       -0.61083508      -1.80576563      -0.28345892
C       -1.88022077       0.63572276       0.25261858
H        1.12179816       3.53822875       0.99686831
H        0.92082578       2.54102015      -2.22375417
H        2.32054591      -0.83270782       2.40329695
H        3.43881035      -1.17486167      -0.75409520
H       -0.70088053      -2.30503130      -2.14457464
H       -3.42293644       1.11675251      -1.03538096
H       -2.55929399       0.79714316       2.20311832
12
Properties=species:S:1:pos:R:3 energy=-1242.6400146484375 pbc="F F F"
O        3.15773249      -0.56876975      -2.07898211
C        4.90487862      -0.26010191      -0.05999881
C        5.57796144       2.45927072       0.07479536
C        4.22514439       4.59560585      -0.58075064
C        5.66282892       6.80906105      -0.07356704
N        7.94913292       6.47994661       0.91670614
S        8.44238949       3.40294313       1.25538290
H        2.81476593      -2.36833715      -2.20667100
H        6.55523300      -1.44822943      -0.43777394
H        4.00295019      -0.87450856       1.69686067
H        2.34307146       4.55990934      -1.38001025
H        5.06011963       8.73386097      -0.41774285
17
Properties=species:S:1:pos:R:3 energy=-1650.8399658203125 pbc="F F F"
C        1.88507736       0.09390049       0.25832558
C        4.70581484      -0.20879585      -0.10100586
O        6.10215235       1.77413154       1.19415569
C        7.87220240      -0.08407392       2.18524146
C       10.38888264       0.11266547       0.82150173
C        6.04581976      -2.25550151       1.48334050
O        7.04036379      -4.44034624       0.17629255
H        0.87118262      -1.47663200      -0.62685996
H        1.22201025       1.84794426      -0.61584288
H        1.36846411       0.14518766       2.26247454
H        5.21284723      -0.23260640      -2.11182570
H        8.10025406       0.13938621       4.23071909
H       10.15576649       0.08539672      -1.23429358
H       11.63292694      -1.45756471       1.34712911
H       11.34914684       1.87757516       1.32356417
H        4.93467951      -2.88255048       3.11672521
H        7.90194654      -3.78427100      -1.31080854
15
Properties=species:S:1:pos:R:3 energy=-1564.260009765625 pbc="F F F"
C        1.64685857       1.46950769       0.22663486
C        4.10346460       1.09248853      -0.19917713
O        5.89095688       2.84333873       0.47290397
C        8.39473057       2.33655190       0.01763115
C       10.21542454       3.98465753       0.61298937
C       12.86053085       3.50086880       0.15996532
C       14.68322849       5.15171480       0.74848270
H        0.25564215       0.06683961      -0.31709605
H        0.98709846       3.18887496       1.12758064
H        4.81010914      -0.60261476      -1.09373569
H        8.77014351       0.52317071      -0.84563357
H        9.69282150       5.77386904       1.47852170
H       13.37871265       1.70670617      -0.69957662
H       14.27663517       6.96874285       1.60808134
H       16.65033913       4.70685434       0.37344769
14
Properties=species:S:1:pos:R:3 energy=-1365.6099853515625 pbc="F F F"
C        1.45567489      -6.27383423      -2.92601418
C        0.79563141      -4.76122189      -1.00612795
C        1.35771155      -1.99417126      -0.87159836
O        2.69850993      -1.53655517       1.43279040
N        3.30246639       1.06538975       1.55388403
C        2.16689229       2.33458662       3.49330997
O        2.89339757       4.38297415       4.28397131
H        0.98600239      -8.27174664      -2.89472032
H        2.47986865      -5.56951427      -4.55813265
H       -0.22436719      -5.56067038       0.58868748
H       -0.42001054      -0.93180507      -0.85561132
H        2.50781775      -1.37379313      -2.47941518
H        5.12599564       1.53674424       1.19680130
H        0.48112428       1.36615860       4.24130154
15
Properties=species:S:1:pos:R:3 energy=-1614.510009765625 pbc="F F F"
C        2.89235806      -0.97572231       1.45650637
C        5.45048046      -0.55792272       0.28527305
C        6.60359144      -2.41867948      -1.00125253
C        6.67642117       1.89617014       0.53226024
C        5.77405834       3.89867520       1.79952955
C        7.09898281       6.20045614       1.87528861
C        8.22053528       8.14889622       1.93942595
H        1.50522351       0.34929699       0.67886519
H        2.97584629      -0.72939652       3.50999618
H        2.17983699      -2.88672686       1.09628677
H        5.73314571      -4.26369476      -1.22367322
H        8.44558334      -2.16919780      -1.87090445
H        8.49229717       2.09266376      -0.42248607
H        3.98084044       3.82193327       2.78919792
H        9.22575665       9.89175224       1.99566424
19
Properties=species:S:1:pos:R:3 energy=-1849.1500244140625 pbc="F F F"
C        1.60279012      -0.32858559       0.07689296
C        4.49080181      -0.25382802      -0.13847913
C        5.33225918      -2.03997827      -2.25697541
C        5.55547380       2.43494987      -0.57064062
O        4.71004772       3.42185950      -2.92765832
C        4.93560553       4.23100233       1.55800366
C        3.82527804       6.50084686       1.37660885
H        0.93276882       0.83771557       1.64918292
H        0.95240307      -2.26313591       0.42915681
H        0.68389189       0.33264849      -1.65553236
H        5.27091885      -0.98073006       1.64145386
H        4.54316616      -1.48022246      -4.08734512
H        4.71422434      -3.97766566      -1.86865568
H        7.39519739      -2.06138897      -2.42516112
H        7.62143564       2.31276011      -0.68961775
H        2.89978480       3.68232036      -2.78623104
H        5.49961329       3.58779621       3.42949390
H        3.26236653       7.30488777      -0.42360100
H        3.49378228       7.63812208       3.05298495
15
Properties=species:S:1:pos:R:3 energy=-1527.3399658203125 pbc="F F F"
C        1.80603015      -0.50019163      -0.14885373
C        4.58740473      -0.05487765      -0.39635116
C        5.84762526       2.09687781       0.11164502
C        4.79929972       4.55263376       1.05868125
O        5.28739691       6.51318693      -0.71601725
C        8.63440418       2.05685353      -0.27884799
O        9.94678116       3.93873739       0.05068246
H        1.47273922      -2.12025380       1.09426486
H        1.00357687      -0.93947732      -2.00433803
H        0.77246338       1.10719049       0.62771034
H        5.61908197      -1.69946849      -1.08213282
H        5.65712214       5.06873703       2.87117434
H        2.75835776       4.49221897       1.35139990
H        7.12914324       6.67736626      -0.78578591
H        9.45717239       0.24710059      -0.90523553
19
Properties=species:S:1:pos:R:3 energy=-1848.72998046875 pbc="F F F"
C        4.36182785      -0.86371821      -2.82850432
C        4.64832926       0.06169956      -0.12436288
C        6.15720034       2.51000977      -0.04641167
C        4.82711649       4.94017887      -1.00248086
C        6.15459251       6.37007761       1.15845883
C        6.31873417       3.82310486       2.58312345
O        8.58309841       3.37565565       4.01901293
H        3.31059241      -2.64385915      -2.87172222
H        6.20965910      -1.18157017      -3.70286179
H        3.34262323       0.51546061      -3.98505449
H        5.61987543      -1.38951564       0.98961180
H        2.77305961       0.32371008       0.71614951
H        8.03602219       2.25485897      -0.89926398
H        2.76272297       4.91466761      -0.82821029
H        5.33065271       5.54455090      -2.91248369
H        7.99133062       7.17081165       0.63434327
H        5.02077579       7.83471012       2.07319975
H        4.65329933       3.48439050       3.77219582
H        9.97446632       3.72633195       2.87176013
15
Properties=species:S:1:pos:R:3 energy=-1481.010009765625 pbc="F F F"
C        3.92033124      -0.94221747       2.48011446
C        4.40602875       0.03327808      -0.17504533
C        5.43250895       2.68104887      -0.10187513
N        4.22605133       4.81608057      -0.06746323
N        1.67070687       4.65792942      -0.11844803
C        8.12933731       3.07123971       0.01984212
C       10.37419987       3.38786316       0.12381486
H        3.19269228      -2.87663555       2.41318035
H        2.53659821       0.23443942       3.47036862
H        5.65863371      -0.94446623       3.60291409
H        2.66237855      -0.02318694      -1.28609097
H        5.77530527      -1.19625330      -1.12550199
H        0.95446289       6.37468863      -0.65350509
H        0.98770314       4.41317177       1.67529893
H       12.36239910       3.69133425       0.21438943
15
Properties=species:S:1:pos:R:3 energy=-1485.9100341796875 pbc="F F F"
C        1.86565101      -0.15448511      -0.34037748
C        4.67648649       0.06772778       0.00769119
C        5.96329546      -2.41295362       0.39194810
O        4.85933638      -4.44204712       0.19947949
C        6.02110195       2.24108291       0.03494104
N        4.90947056       4.57642555      -0.09367372
N        8.60428238       2.36805367       0.17797440
H        0.95846909       1.62830138      -0.85508215
H        0.97953951      -0.83546680       1.40140200
H        1.42867076      -1.48948216      -1.86200380
H        7.97969007      -2.34896731       0.89467192
H        3.06050587       4.58430576       0.42452699
H        5.88579750       5.84889126       0.96498865
H        9.49628925       0.91793448      -0.70945990
H        9.21315193       4.02481413      -0.58755362
18
Properties=species:S:1:pos:R:3 energy=-1726.3800048828125 pbc="F F F"
C        1.67012107       4.39582443      -1.02884245
N        3.41637921       2.51743650      -0.02048463
C        6.02911472       3.41728616      -0.19949839
C        7.88168859       1.41517806       0.77561921
C        7.79156780      -1.07833445      -0.67603064
C        8.69200325      -0.86362374      -3.37346339
O        9.84681511       0.95087242      -4.23943043
H       -0.26408923       3.67581964      -0.89973640
H        2.05713701       4.78344488      -3.02403426
H        1.76407826       6.16691351       0.03658510
H        2.98236585       2.19104290       1.82919824
H        6.25865936       5.13534975       0.93743646
H        6.48448181       3.90708447      -2.15835071
H        7.48121786       1.03296208       2.77402353
H        9.79976082       2.19792151       0.69914198
H        5.87570667      -1.85799766      -0.70380962
H        9.01085663      -2.46875715       0.25566104
H        8.34627819      -2.55027986      -4.55057383
15
Properties=species:S:1:pos:R:3 energy=-1537.43994140625 pbc="F F F"
N        2.20844746      -0.11538668      -1.49872291
C        4.38344669       0.19740079      -0.44661787
N        5.59872961       2.43232322       0.00517785
C        8.08052540       2.57945728       1.21955371
C        8.65037251       5.44358301       1.31148887
C        6.36835814       6.62358475       0.10792226
C        4.74198437       4.81846142      -0.57504368
H        1.79335010      -2.00450802      -1.57867718
H        5.47198534      -1.46217561       0.19993302
H        9.51231480       1.57663631       0.10964191
H        8.02404213       1.77588904       3.12706208
H       10.36802006       5.89424467       0.25110680
H        8.88318634       6.09300613       3.26130819
H        6.08994484       8.62578678      -0.16166607
H        2.92282057       5.03653574      -1.48674202
18
Properties=species:S:1:pos:R:3 energy=-1768.6800537109375 pbc="F F F"
C        5.08130360      -2.00653005       1.74066448
C        6.00133562      -0.53987586      -0.55166775
C        6.05492830       2.24915195      -0.04057242
C        8.15687084       3.66896009      -0.13785551
C        8.28183842       6.38759565       0.33999953
C        8.46334648       7.31065130       3.02673650
N       10.65185738       7.36392260       1.35546279
H        5.05301428      -4.03448963       1.32819402
H        3.16257000      -1.43921542       2.27523017
H        6.32009459      -1.70324790       3.37234855
H        4.73680639      -0.89862144      -2.15062165
H        7.87566042      -1.23219597      -1.09464276
H        4.26080322       3.14089489       0.42284513
H        9.94060230       2.75826311      -0.61410433
H        7.33344126       7.57402229      -1.03645813
H        8.53073406       5.93980598       4.54482937
H        7.61952686       9.11118221       3.50064206
H       10.97978115       9.14873123       0.69936872
15
Properties=species:S:1:pos:R:3 energy=-1537.9200439453125 pbc="F F F"
C        1.97971487       0.03008444       0.19838345
C        4.82118273      -0.00088817      -0.08254324
O        5.92194796       1.98183143       1.43288481
C        8.38817310       1.12788308       2.15470362
C        8.10412788      -1.63569021       2.82005715
C        6.04306078      -2.33139300       1.02563000
O        5.42147303      -4.51190996       0.55977470
H        1.10356224      -1.48530579      -0.90219307
H        1.20982158       1.84363568      -0.43219927
H        1.42298269      -0.20643368       2.17783380
H        5.42784166       0.24241407      -2.04513717
H        9.67401791       1.40295160       0.55229133
H        9.07501316       2.25196767       3.74747801
H        9.83524990      -2.70661688       2.49400377
H        7.41454840      -1.88704276       4.75056362
14
Properties=species:S:1:pos:R:3 energy=-1384.43994140625 pbc="F F F"
C        5.88404036      -2.58665705      -0.24543764
C        4.95019436       0.09720751      -0.37575313
O        2.70348001       0.58515370      -0.77866167
N        6.70697832       1.99942470      -0.02655065
O        5.69703293       4.47957706      -0.17387371
C        9.25226879       1.85287642       0.43601650
C       10.78308010       3.84323049       0.74528909
H        7.29266119      -2.92418122      -1.71885705
H        4.29912710      -3.87917304      -0.55406773
H        6.68326235      -2.97414541       1.62002444
H        3.90731120       4.13014746      -0.50599307
H       10.05264378      -0.03186078       0.55395430
H       10.08994675       5.77129936       0.64757133
H       12.78331661       3.58121991       1.10658586
13
Properties=species:S:1:pos:R:3 energy=-1370.3199462890625 pbc="F F F"
O        2.36982989       0.00763449       1.90633678
C        4.76849699      -0.01247219       0.62175769
C        4.84760094       1.30942905      -1.89341104
O        7.31093454       2.13115764      -2.89405894
C        8.50044155      -0.11725751      -3.57536173
C        7.22699308      -2.20287275      -2.97081947
C        4.82760763      -1.57102382      -1.76073349
H        1.80236411       1.72966635       2.21795273
H        6.45607948       0.05051238       1.78630137
H        3.16791797       2.26880527      -2.56755209
H       10.31040287       0.09573352      -4.47948265
H        7.84687996      -4.11484098      -3.33151150
H        3.14815140      -2.55487204      -2.37334490
16
Properties=species:S:1:pos:R:3 energy=-1507.550048828125 pbc="F F F"
C        1.82564557      -0.83312356       0.14086019
C        4.64203644      -0.56472576      -0.40048966
C        5.43745995      -2.29429770      -2.56142926
O        5.16987514       1.99184692      -1.18406463
C        5.66299915       3.73321056       0.62277812
N        5.70914602       3.25943732       3.00923777
O        6.28987789       5.48791599       4.31471729
H        1.25060189       0.41426575       1.68758214
H        1.34510708      -2.77661252       0.65807825
H        0.70027584      -0.28806984      -1.50907862
H        5.75211859      -1.06552207       1.27581084
H        4.43212605      -1.81670713      -4.30715847
H        5.07731628      -4.27922821      -2.10791397
H        7.45616007      -2.06471467      -2.95689225
H        6.02165031       5.59597063      -0.23612128
H        6.30363512       4.92617607       6.07108545
15
Properties=species:S:1:pos:R:3 energy=-1580.3900146484375 pbc="F F F"
C        2.10917997       2.23660421      -0.55471021
C       -0.36401793       2.95528603       0.73561370
C       -2.58620358       1.47872961      -0.17721851
C       -2.72551417      -1.04401696      -0.28194714
O       -0.98271430      -2.81266832       0.42989379
C        1.57799697      -2.47654271       0.34646240
C        2.97769809      -0.41783735      -0.11884487
H        3.58038855       3.50708604       0.16913049
H        1.99653351       2.57957077      -2.59599233
H       -0.20764311       2.76546311       2.79462147
H       -0.72489893       4.96387577       0.36789188
H       -4.23464966       2.56284666      -0.75095826
H       -4.43460131      -2.00314760      -0.88119817
H        2.46318245      -4.29631138       0.68676430
H        5.01858330      -0.67578495      -0.17262648
15
Properties=species:S:1:pos:R:3 energy=-1475.8399658203125 pbc="F F F"
C        2.44470096      -0.79729438      -0.87071019
N        5.14555407      -0.39353547      -0.49130991
N        5.88356781       2.05611658      -0.40587538
C        8.30277634       2.33866835      -0.14751202
C        9.46586514       4.92853785      -0.02229877
C       10.81635761       5.28144455       2.37799358
C       11.92031670       5.58415985       4.33745050
H        2.04904890      -2.82326984      -0.98511422
H        1.81283319       0.07562684      -2.63620567
H        1.35149431      -0.00625499       0.69696879
H        5.69399071      -1.35799503       1.09250736
H        9.61250782       0.71276689      -0.04437077
H        7.99526119       6.36575031      -0.24812104
H       10.78536606       5.09891558      -1.60690975
H       12.89199543       5.86404705       6.08074188
17
Properties=species:S:1:pos:R:3 energy=-1670.93994140625 pbc="F F F"
C        4.89932299      -2.24705434      -2.36138296
C        5.08574438      -0.90317571       0.17442173
C        6.44509983       1.63432968      -0.00597153
C        9.28741837       1.41672766      -0.31985503
O       10.43382072      -0.61151540      -0.28398803
C       10.72376156       3.89406419      -0.62965673
O       13.35420322       3.49347997      -0.97574121
H        3.81821060      -4.00004005      -2.15916324
H        6.76665592      -2.73655009      -3.10383749
H        3.93614841      -1.06338668      -3.75957227
H        6.02886868      -2.13979363       1.54229999
H        3.16531014      -0.57638538       0.87787229
H        6.11424685       2.69439054       1.74279988
H        5.69109917       2.74280524      -1.58459210
H       10.45628929       5.04252625       1.06754410
H        9.99704838       4.90104246      -2.28129625
H       13.63242722       1.67671621      -0.75020236
16
Properties=species:S:1:pos:R:3 energy=-1576.9200439453125 pbc="F F F"
N        2.04908681      -0.00037795       0.01275565
C        4.82246780      -0.00185193       0.13846023
C        6.01696348      -1.81717956      -1.85675037
C        8.85948944      -1.42113078      -1.59893513
C        8.85459518       1.47846508      -1.57331038
C        6.01000929       1.86791873      -1.81396699
O        5.22781420       0.04508886      -3.83270478
H        1.19959819       1.35396993       1.07997847
H        1.22690475      -1.67915392       0.45975146
H        5.60987902      -0.04306686       2.04744267
H        5.22469568      -3.70151997      -2.11224127
H        9.61980247      -2.22148657       0.14896712
H        9.90498066      -2.17492366      -3.21550131
H        9.88750076       2.26328731      -3.18175077
H        9.62070942       2.25136304       0.18460734
H        5.20817947       3.75335526      -2.02811074
21
Properties=species:S:1:pos:R:3 energy=-1922.02001953125 pbc="F F F"
C        5.35512495      -1.30098200       2.57671714
C        4.83116055      -0.32680923      -0.09333357
N        2.08508611      -0.31879681      -0.54507262
C        5.93124580       2.35958767      -0.52848083
N        8.68474674       2.60602689      -0.10988758
C       10.13397789       1.16441143      -1.97672915
C        9.41480446       5.27594519      -0.22674824
H        7.38799763      -1.46478343       2.92756367
H        4.53313160      -3.18210983       2.85350537
H        4.55798149      -0.04019447       4.01364613
H        5.66022110      -1.64241767      -1.45926547
H        1.22792518       0.80336040       0.76755005
H        1.39131081      -2.09213471      -0.24778089
H        4.95809317       3.64770055       0.77801913
H        5.44766474       2.99325061      -2.44634485
H        9.80335140      -0.86619377      -1.77280879
H       12.16588688       1.44036818      -1.68695855
H        9.67728710       1.71721303      -3.91887617
H        8.42169666       6.36716747       1.22556293
H        9.00511169       6.11857414      -2.07319975
H       11.43739700       5.49358511       0.15624255
15
Properties=species:S:1:pos:R:3 energy=-1588.6300048828125 pbc="F F F"
O        2.17586851       0.02275230       0.61913097
C        4.82390404      -0.06234207       0.12377706
C        5.44456577      -2.37476206      -1.52387512
C        6.11282921      -1.25719702      -4.04172754
C        6.22099733       1.26687241      -3.96256661
C        5.61887407       2.17707801      -1.46578503
C        5.78065348       4.58560944      -0.71688652
H        1.56886959       1.67807686       0.10476641
H        5.82411718      -0.13570124       1.93296301
H        3.84942889      -3.68071413      -1.68763888
H        7.08375168      -3.39606452      -0.77752781
H        6.51239300      -2.38356829      -5.69858265
H        6.72094345       2.47089243      -5.53493214
H        5.31923914       5.12629795       1.20804524
H        6.39349174       6.07015944      -1.99324536
17
Properties=species:S:1:pos:R:3 energy=-1724.239990234375 pbc="F F F"
C        0.51742589      -0.09556345       2.00063419
C        3.16389298      -1.10796535       1.71643829
O        3.66274285      -3.31667733       2.24066710
C        5.13079548       0.74990004       0.76993114
C        7.74731016      -0.44950914       0.56268483
C        9.66434288       1.42169762      -0.38121444
C       11.68546200       2.16564512       0.94578904
H        0.49739483       1.39701784       3.42699933
H       -0.74927640      -1.61424184       2.59954500
H       -0.14125703       0.64108962       0.18712068
H        5.18058968       2.34930754       2.08482146
H        4.51257133       1.44123745      -1.08222723
H        7.68731165      -2.05330086      -0.74927640
H        8.31517315      -1.21711588       2.40358043
H        9.38265991       2.17040706      -2.27553272
H       12.06164932       1.45027030       2.83069634
H       13.02136612       3.50820088       0.15830235
12
Properties=species:S:1:pos:R:3 energy=-1174.4200439453125 pbc="F F F"
C        2.14742804      -0.07419065       0.29519412
N        4.56986809      -0.08435737       0.59473461
N        5.67237186       2.13979363      -0.04790456
C        8.43997002       2.18017697       0.01538237
C        9.36833668       4.69175529      -0.72159195
C       10.13324070       6.74348783      -1.32152331
H        1.04955387      -1.78021646       0.75912189
H        1.07625568       1.56537354      -0.42488602
H        5.03383350       3.59278512       1.05492067
H        9.18847179       0.75133622      -1.28282166
H        9.10783768       1.71715629       1.92035854
H       10.81257820       8.56032753      -1.86294866
15
Properties=species:S:1:pos:R:3 energy=-1442.3299560546875 pbc="F F F"
O        4.40132332      -1.51123285       2.41926527
C        4.06861830      -0.38437030      -0.00077479
C        5.11734056       2.28362060       0.03322139
C        7.95315790       2.17467785       0.09308791
N        9.27218723       2.98402882      -1.80102241
N       11.84045696       2.68342996      -1.32976246
C       13.16405869       3.62256718      -3.14890742
H        3.74275374      -3.22542238       2.31155086
H        2.04135776      -0.34270182      -0.40562972
H        5.01463413      -1.56195319      -1.41542375
H        4.49412775       3.30361915       1.72172952
H        4.50899982       3.31578898      -1.65264106
H        8.84049797       1.36750031       1.80344129
H       15.24105740       3.53885245      -3.06693101
H       12.31778336       4.52999496      -4.82373381
17
Properties=species:S:1:pos:R:3 energy=-1609.239990234375 pbc="F F F"
C        1.57714653       0.85725534      -1.60224211
N        4.26042557       0.54830402      -2.00549078
C        6.03334761       2.15821838      -0.99713290
N        5.70606565       4.56057072      -0.73253345
C        8.57141972       1.00066674      -0.15733860
C        8.28210258      -0.24927378       2.41032672
O        9.31515884      -0.87426287      -1.94358337
H        0.56017154      -0.76524460      -2.38283134
H        0.87465972       2.55829239      -2.54336357
H        1.15120232       0.97593015       0.41832867
H        4.83299351      -1.29312074      -1.96302867
H        3.98048139       5.04335785      -1.45181990
H       10.02337170       2.47376490      -0.08320464
H        6.99542618      -1.86903358       2.31049252
H        7.54873800       1.07357228       3.81974125
H       10.10398769      -0.97984189       3.06509805
H        9.56267548       0.03133166      -3.52838326
18
Properties=species:S:1:pos:R:3 energy=-1710.4000244140625 pbc="F F F"
C        1.80242074       0.07778113      -0.00784236
C        4.66238880       0.01124387       0.03537567
C        5.99787760       1.82337785       1.89360011
N        7.88131094      -0.19766535       2.39804363
C        5.91684580      -2.09194565       1.63875163
C        7.04217768      -4.35126448       0.25173041
O        8.74092865      -5.65077257       1.89335442
H        1.05531752      -1.50631964      -1.10921252
H        1.12831771       1.83036983      -0.87636048
H        1.00340676      -0.03783232       1.89838111
H        5.43876410       0.14719076      -1.88725054
H        4.89408827       2.34414864       3.56821871
H        6.78033733       3.54418135       1.05690491
H        9.38024139      -0.10977419       1.18277955
H        4.76713657      -2.70659804       3.25681067
H        8.09970665      -3.77457666      -1.43150532
H        5.56252241      -5.67114353      -0.33363116
H        9.49415398      -4.36600447       2.98314047
17
Properties=species:S:1:pos:R:3 energy=-1655.6300048828125 pbc="F F F"
C        1.90155578       0.25048319       0.89145941
C        4.57270241       0.21319890      -0.17173831
C        6.42847013       1.99747837       1.17903793
C        7.39223051      -0.35058200       2.56902599
N        6.16177320      -1.83033204       0.67081499
C        5.19614220      -4.14796782       1.23552179
N        6.07786942      -5.79694271       2.79511285
H        0.72397298      -1.20228159       0.00498888
H        1.00822556       2.07716799       0.50244039
H        1.86204159      -0.04110155       2.94107533
H        4.59946108       0.38540965      -2.23516798
H        5.60190392       3.46211052       2.38043141
H        7.82722664       2.86567521      -0.07768665
H        9.44075012      -0.60312498       2.59561443
H        6.60145569      -0.60671550       4.46425104
H        3.49960279      -4.63736916       0.12766990
H        7.69783735      -5.10660696       3.59176469
19
Properties=species:S:1:pos:R:3 energy=-1733.3199462890625 pbc="F F F"
C        1.62108266       0.39790073      -0.16444397
N        4.36572075       0.34855998      -0.04658175
C        5.41848755       2.91556406       0.08084249
C        8.31708145       2.82119107      -0.14112474
O        9.00860786       1.85327327      -2.58497524
C        9.48772907       5.46724224       0.16266763
N       12.23187637       5.34996605      -0.25949720
H        0.89939624      -1.53746223      -0.28207943
H        0.94272768       1.43039036      -1.82483292
H        0.81991440       1.25717807       1.53952205
H        5.08111429      -0.48443130      -1.64109492
H        4.87942410       3.80203438       1.87245405
H        4.66015911       4.05121374      -1.47912645
H        9.10354805       1.53768909       1.28370988
H       10.74655151       2.44479537      -2.82803178
H        9.09117031       6.23397970       2.04322863
H        8.69056702       6.75624323      -1.24973261
H       13.04341888       4.29498863       1.13882458
H       12.96832085       7.12290668      -0.06710418
17
Properties=species:S:1:pos:R:3 energy=-1714.97998046875 pbc="F F F"
C        1.49448991       0.14237197       0.36456597
C        4.02419090       0.18797106       0.43522283
C        5.69869614       2.47618365       0.21378472
C        4.45642757       5.06299210       0.17944840
C        6.66037750       6.77629328       0.80045021
O        8.25455093       5.39970350       2.50426507
C        7.52961397       2.78256512       2.42272329
H        0.47999045      -1.63538790       0.52776271
H        0.36345103       1.83696496       0.13658941
H        5.00767994      -1.60991442       0.64027703
H        6.81030846       2.27351069      -1.52858055
H        3.02535701       5.22242832       1.67091477
H        3.56974936       5.53625488      -1.62688410
H        7.76953363       7.21641064      -0.89089251
H        6.06656885       8.54946136       1.68011773
H        9.22428226       1.61701977       2.20408201
H        6.65004063       2.32016802       4.24003506
15
Properties=species:S:1:pos:R:3 energy=-1536.969970703125 pbc="F F F"
C        2.05929136      -0.03643392      -0.29213277
N        4.72497654       0.10013659       0.36322427
C        5.81213617       2.26479888       0.26482621
N        8.30287075       2.55062008       0.88662171
C        8.93477631       5.18306541       1.16456258
C        6.56677961       6.39196062       0.17168161
C        4.71630287       4.75096035      -0.38433251
H        1.44898534      -2.01144338      -0.21435164
H        1.70532668       0.63901091      -2.21591187
H        0.89595693       1.02387249       1.05129242
H        9.04528713       1.23580527       2.05573869
H       10.58201313       5.67908049       0.02141060
H        9.25491524       5.68556213       3.14380503
H        6.39426613       8.41421318      -0.05130607
H        2.84532285       5.10981941      -1.08115017
20
Properties=species:S:1:pos:R:3 energy=-1857.2099609375 pbc="F F F"
C        2.40144515       4.11187410       0.93932617
O        5.04878139       4.17546320       1.38620865
C        6.39849949       2.69799972      -0.44444469
C        9.27122307       2.78014612       0.12251095
C        9.81130695       1.76802778       2.78944373
C       10.70771694       1.20730817      -1.83775866
N       10.17634487       5.41209984      -0.04066691
H        1.47559261       5.30892086       2.34583044
H        1.68444514       2.18240690       1.14137566
H        1.96161127       4.84247971      -0.94359696
H        6.01596212       3.45211387      -2.33813930
H        5.71581697       0.74126399      -0.36876115
H        8.90197086       2.92249918       4.25109005
H       11.84247875       1.74321568       3.19257903
H        9.11089897      -0.17039661       2.99782372
H       10.38300610       1.91535079      -3.75944018
H       10.09922600      -0.77165079      -1.79085565
H       12.74962330       1.24198472      -1.49210882
H        8.98561001       6.49468660       1.03237629
H       11.91243649       5.56010342       0.77762228
12
Properties=species:S:1:pos:R:3 energy=-1240.3199462890625 pbc="F F F"
C        1.63574696      -0.20303218      -0.01970984
N        4.35355091      -0.01678077       0.16816673
S        5.85076237       2.76342201      -0.03531898
C        8.86636829       1.33418441      -0.03526229
O       10.88599396       2.43449640      -0.08358259
C        8.53540134      -1.42868960       0.01468317
C        6.06636095      -1.96489942       0.09554455
H        0.70774025       1.64389169       0.10399163
H        0.89820576      -1.37424660       1.51916969
H        1.08978617      -1.07487619      -1.81511974
H       10.10109615      -2.72107339      -0.03573472
H        5.30982828      -3.86911988       0.11491425
15
Properties=species:S:1:pos:R:3 energy=-1502.5400390625 pbc="F F F"
O       -0.47991484      -0.94263321      -0.56406438
C        2.15717912      -0.61060828      -0.15633704
C        3.03282142       2.01399446      -0.84449971
C        1.50131178       3.83597398      -1.73728192
O        5.63429403       2.29380631      -0.61045712
C        6.67404032       4.54573631       0.14333573
C        9.16600323       4.93210983       0.11958187
H       -0.84674847      -2.69992733      -0.17999642
H        3.16708660      -2.00310969      -1.30619764
H        2.55322790      -0.97882146       1.84017754
H       -0.51362759       3.50731277      -1.94568098
H        2.20317507       5.66766644      -2.32475996
H        5.34716892       5.95448923       0.79616052
H       10.45124340       3.46830893      -0.52029830
H        9.96101093       6.71725845       0.73499006
16
Properties=species:S:1:pos:R:3 energy=-1624.030029296875 pbc="F F F"
C        1.82779980       0.00170075      -0.00030236
C        4.66305065      -0.02764669       0.00211649
C        5.95405483      -2.20995903       0.01645952
C        6.01877785       2.30098724       0.00000000
C        7.14331579       4.24874687       0.00000000
C        8.50769806       6.61192513       0.00000000
N        6.75253963       8.72864532      -0.09083913
H        1.08799088       1.93377566       0.08050233
H        1.08392799      -1.01922381       1.63920510
H        1.09277189      -0.87862819      -1.72360027
H        4.98600483      -4.01780319       0.02250664
H        8.00591946      -2.24639297       0.02398062
H        9.78269672       6.71039867      -1.62716758
H        9.67086220       6.77406359       1.70315349
H        5.69690084       8.58967495      -1.69438517
H        7.75042820      10.36539364      -0.23528980
20
Properties=species:S:1:pos:R:3 energy=-1919.280029296875 pbc="F F F"
C        1.95038629      -0.54112309      -0.05759885
C        4.83747196      -0.44641000      -0.02222318
N        5.83456707      -1.95529962      -2.11426330
C        5.76980639       2.30011797      -0.17850353
C        8.65337753       2.52524114      -0.00595264
C        9.47773266       5.24448156      -0.06823801
C       10.77640915       6.37797689       1.78380704
H        1.16480827       0.51759601       1.53801036
H        1.26783621      -2.49050784       0.08872264
H        1.18431032       0.27450162      -1.80045545
H        5.50099277      -1.28197134       1.75383592
H        5.18901777      -1.25593090      -3.78961897
H        5.15781832      -3.75528264      -1.99534297
H        4.91513968       3.38614368       1.37016487
H        5.10800552       3.17339826      -1.94114554
H        9.54918289       1.55093598      -1.59984219
H        9.32232094       1.59965312       1.72394049
H        8.99672127       6.32098293      -1.75321233
H       11.31792927       5.37685680       3.48979497
H       11.33552265       8.34461498       1.61930633
13
Properties=species:S:1:pos:R:3 energy=-1370.3499755859375 pbc="F F F"
O        1.93931258       0.00353379      -0.00958091
C        4.60955238       0.16771320      -0.10790336
C        5.38621092       2.69030857       0.95837462
C        6.96772242       2.34537697       2.91743469
C        7.46959591      -0.33463269       3.45655465
O        8.47493076      -2.03160667       1.58965647
C        5.78743744      -1.76889706       1.63162732
H        1.47965550      -1.54602277      -0.87896830
H        5.25425100      -0.04913288      -2.06119990
H        4.74634933       4.48515177       0.23281425
H        7.80375624       3.85906649       4.01045227
H        7.48968410      -0.90890157       5.42035818
H        4.60613203      -3.28698969       2.29592276
17
Properties=species:S:1:pos:R:3 energy=-1659.0400390625 pbc="F F F"
C        3.61508393      -0.44746825       2.69529748
C        4.34045506       0.42275062       0.05155173
N        5.47245789       2.97817063       0.12084799
C        3.93170762       5.11390114       0.07560794
C        1.41383636       5.31192589      -0.05194857
C        8.08936977       3.07881737       0.33826098
N        9.62745571       4.96243954       0.37958929
H        2.86493826      -2.37298584       2.63263416
H        2.16653323       0.77603495       3.51893473
H        5.24999952      -0.43112212       3.96065807
H        2.68732285       0.37654683      -1.19787848
H        5.67520666      -0.93613255      -0.77106494
H        4.98311329       6.87433243       0.17616028
H        0.17064227       3.68923664      -0.14218299
H        0.52551395       7.16123056      -0.05710752
H        8.94471645       1.18177807       0.49898219
H        8.67308712       6.62485075       0.20184165
13
Properties=species:S:1:pos:R:3 energy=-1294.469970703125 pbc="F F F"
O        1.99093986       0.01109269       0.63080949
S        4.72257662      -0.00071810       0.39852434
O        6.34583282      -0.01080923       2.60903144
C        5.62618732      -2.55630803      -1.63317692
C        6.50923729      -1.26815736      -3.99372840
C        6.52044344       1.26252604      -3.99036455
C        5.64880705       2.55218863      -1.62639284
H        3.98356152      -3.75454569      -1.98190701
H        7.15181971      -3.62411690      -0.74022460
H        7.10361290      -2.36950874      -5.61479187
H        7.12456989       2.36287570      -5.60849953
H        7.18383169       3.60406685      -0.73062479
H        4.01683950       3.76586509      -1.97192919
20
Properties=species:S:1:pos:R:3 energy=-1908.8599853515625 pbc="F F F"
C        4.20152283      -0.94068676      -2.55453181
C        4.46576309       0.25777754       0.05038010
N        6.23741913       2.38264227      -0.02919627
C        5.01947165       4.69341850      -1.05119801
C        6.29089832       6.20066404       1.10762513
C        8.81819916       7.42737961       0.49811292
C        6.39231968       3.62181139       2.48209858
H        2.95863080      -2.59106016      -2.45197630
H        6.03561497      -1.57166636      -3.27502775
H        3.38674831       0.38299081      -3.91931081
H        5.20564747      -1.18128669       1.34622204
H        2.59183502       0.79852265       0.75836599
H        2.94806719       4.74115276      -0.97043109
H        5.61110735       5.19897652      -2.96796608
H        5.02831554       7.57184935       2.01442909
H       10.12477493       6.10680103      -0.41039184
H        9.71510124       8.12669182       2.22619176
H        8.54959393       9.03701019      -0.77344602
H        8.13209629       3.22710419       3.52743840
H        4.77951431       3.30467749       3.74674106
19
Properties=species:S:1:pos:R:3 energy=-1783.8900146484375 pbc="F F F"
C        6.19250011      -1.68359482      -1.95783186
C        5.10879898      -0.51113313       0.43743381
C        6.12526369       2.16247034       0.97997415
N        4.80205870       3.21004009       3.17999339
C        8.95962620       2.16600418       1.39047945
C       10.26880932       3.76543045       3.36314559
N       10.03399181       1.03141248       3.68464470
H        5.28393888      -3.50812531      -2.32561040
H        8.22422028      -2.02599430      -1.78581011
H        5.86667347      -0.46464586      -3.59316301
H        5.50660515      -1.77609694       2.03436565
H        3.04718328      -0.43762279       0.23332448
H        5.70844698       3.38557673      -0.64003134
H        5.40728140       2.21404099       4.72369194
H        2.91752934       2.86410666       3.03227353
H        9.98113632       1.84475064      -0.35783854
H        9.16052341       4.92286873       4.63415670
H       12.13816452       4.48471689       2.95502138
H       11.70655060       0.14987418       3.28596926
14
Properties=species:S:1:pos:R:3 energy=-1345.3199462890625 pbc="F F F"
C        5.19990253       5.86383915      -2.12926793
C        4.27658272       3.73661208      -1.12725949
O        5.53544235       1.74034333      -0.08437628
C        8.24077415       1.79661930      -0.07798900
O        9.24098778       3.55788183       1.71636271
N       11.89658165       3.49206281       1.60284686
C       12.78033161       4.97330570       3.32438731
H        3.92087936       7.27826118      -2.88699126
H        7.20246458       6.28545570      -2.21426773
H        2.25933766       3.37427616      -1.04180598
H        8.97001934       2.18473125      -1.98075426
H        8.86916542      -0.10009880       0.46360651
H       14.83707142       5.18752480       3.55194807
H       11.56453800       6.06388569       4.61937904
15
Properties=species:S:1:pos:R:3 energy=-1415.52001953125 pbc="F F F"
C        7.46390820      -2.28681421      -0.79205984
S        5.24204350       0.01233991       0.20384476
O        3.40643930       0.35003397      -1.80100346
O        4.47455025      -0.59524482       2.76037955
C        7.12611961       2.87569070       0.45249492
C        7.26709318       4.44937897      -1.91036189
C        5.60519218       5.27071095       0.24923597
H        8.96841335      -2.41225433       0.61331064
H        8.22163105      -1.72977972      -2.62749410
H        6.49005651      -4.09889174      -0.94930393
H        8.71078682       2.83683801       1.73696065
H        6.34260130       3.80726910      -3.62332320
H        8.98029995       5.51973867      -2.25174093
H        6.20117426       6.87830067       1.36929560
H        3.57196045       5.14670706       0.00028346
18
Properties=species:S:1:pos:R:3 energy=-1696.0400390625 pbc="F F F"
C        1.81347573      -0.09681067       0.05102260
C        4.68391275       0.05595479       0.13585241
C        5.72424507       2.77271962       0.12600695
C        4.82239199       4.30279303       2.41325593
C        8.62342548       2.69478726       0.01791460
O        9.66215038       5.17100859      -0.09964526
H        1.21564198      -2.06745481      -0.14615142
H        1.05798209       0.96542329      -1.55414855
H        0.96230525       0.63627076       1.78666043
H        5.43209314      -0.95680612      -1.51246119
H        5.36258936      -0.95659828       1.81305993
H        5.04095793       3.74987817      -1.57321596
H        5.36831522       3.38601136       4.18544102
H        2.76551962       4.52171803       2.40533781
H        5.62626266       6.20833635       2.40305138
H        9.27152538       1.65600479      -1.65005219
H        9.40284252       1.75918388       1.69034111
H        8.93536186       6.00634336      -1.56682861
13
Properties=species:S:1:pos:R:3 energy=-1322.9200439453125 pbc="F F F"
C        1.82330227      -0.27831885      -0.02186413
C        4.67021227       0.09858701       0.04319914
C        5.34975815       2.80303073       0.01109269
C        5.90261650       4.58443785       1.79805553
N        6.39515448       6.81499481       0.60773593
N        6.16848183       6.48368835      -1.87283194
O        5.51032782       3.96001554      -2.27957654
H        1.36630976      -2.29524255       0.00551800
H        0.99775648       0.54450572      -1.73223639
H        0.91294557       0.60902095       1.61159623
H        5.53103924      -0.86086476      -1.57856381
H        5.44116402      -0.79381728       1.74635255
H        5.97297096       4.39986849       3.82629848
15
Properties=species:S:1:pos:R:3 energy=-1546.7900390625 pbc="F F F"
C        4.05964184      -1.24876881       2.51923180
C        4.96485853      -0.33844995      -0.05518000
C        5.67730427       2.44447422      -0.03223873
N        3.68362427       4.12910843      -0.12012989
C        8.13855934       3.09246135       0.00000000
C        9.02546406       5.59700966       0.00000000
N        9.75153446       7.64734364       0.00000000
H        3.59087658      -3.26344371       2.43821907
H        2.36559701      -0.22980960       3.13426208
H        5.52402830      -0.99278653       3.96107388
H        3.48189592      -0.65847510      -1.46654081
H        6.57545328      -1.50193548      -0.64494461
H        2.02877212       3.48204708       0.61506808
H        4.08241320       5.94033527       0.40517619
H        9.58104420       1.63712645       0.03790791
18
Properties=species:S:1:pos:R:3 energy=-1750.31005859375 pbc="F F F"
C        1.70052671      -0.69254684       0.46455139
N        4.29083109      -0.29247290      -0.42532066
C        4.97396708      -2.29008341      -2.21969128
C        4.60482788       2.20744586      -1.62924623
C        4.38252068       4.43881559       0.21909484
C        4.85869360       6.85995150      -1.07240069
C        5.23584509       8.83671856      -2.11915779
H        1.21921349       0.62463009       1.98419356
H        1.49379075      -2.58900046       1.27201247
H        0.31033084      -0.48318407      -1.05628133
H        4.82008648      -4.15359926      -1.32959247
H        6.94532919      -2.08829856      -2.82018948
H        3.77083516      -2.27037358      -3.90581822
H        3.25225639       2.44039226      -3.18749547
H        6.49655724       2.29771805      -2.48173952
H        5.73843670       4.20403576       1.76819789
H        2.49326682       4.50610876       1.06166708
H        5.56860733      10.59448528      -3.04548264
12
Properties=species:S:1:pos:R:3 energy=-1260.4200439453125 pbc="F F F"
C        1.84818995      -0.18462624      -0.30110896
N        4.56436872      -0.01789571       0.13991532
C        5.47918510       2.64569211       0.15102692
C        4.53502131       4.12402487       2.33492661
N        3.73887992       5.31547832       3.99947309
C        8.27805901       2.73116446       0.06056572
N       10.47055721       2.77742505      -0.10384045
H        1.29194903      -2.17581177      -0.37051859
H        1.31678009       0.68143523      -2.10328412
H        0.76560366       0.69730896       1.22397566
H        5.48030043      -0.97732854      -1.26169455
H        4.80377817       3.55850554      -1.58672750
13
Properties=species:S:1:pos:R:3 energy=-1399.6400146484375 pbc="F F F"
O        3.06031704      -0.55231023      -1.93645906
C        4.98490858      -0.08887382      -0.11737089
C        5.49812031       2.65944934      -0.07814018
C        4.09866476       4.77565908      -0.68612176
C        5.66849804       6.88831615      -0.21350126
C        7.92035246       5.93319225       0.65870184
O        7.83493662       3.37059116       0.75753450
H        2.86966252      -2.37498879      -2.03241944
H        6.67585421      -1.15091884      -0.65367514
H        4.32488394      -0.73162639       1.73276544
H        2.18287945       4.76673985      -1.39577067
H        5.21573877       8.86190891      -0.47968808
H        9.67982006       6.78045082       1.25891662
13
Properties=species:S:1:pos:R:3 energy=-1426.27001953125 pbc="F F F"
C        1.64109492       0.19628586      -0.00863605
C        4.47139454       0.07394499      -0.00918407
C        5.57323694      -2.51632142      -0.02061691
O        4.25229931      -4.42125988      -0.02904509
C        5.93188810       2.15048933       0.00000000
C        8.58884335       2.15048933       0.00000000
C       10.83791924       2.15048933       0.00000000
H        0.95049447       2.14776826      -0.00001890
H        0.87426287      -0.74358833       1.66787231
H        0.87426287      -0.72873509      -1.69340253
H        7.64995146      -2.65172029      -0.02122162
H        5.03086662       3.99779129       0.00816362
H       12.85180092       2.15665007       0.00001890
12
Properties=species:S:1:pos:R:3 energy=-1157.4599609375 pbc="F F F"
C        1.93434262       0.02443416      -0.14240976
C        4.74480009      -0.08647387       0.00447865
C        6.22908545      -1.38770151      -2.04273725
C        6.34118414       1.44174767      -1.78599906
H        1.21293962       1.48749793       1.13069868
H        1.11883128      -1.78669822       0.43350318
H        1.26808178       0.45287287      -2.05375433
H        5.39815378      -0.30139241       1.93377566
H        5.22206926      -2.16781831      -3.64516830
H        7.88055468      -2.46692419      -1.48681760
H        8.06691933       2.27296257      -1.06000412
H        5.41153336       2.56853461      -3.22306013
13
Properties=species:S:1:pos:R:3 energy=-1314.8499755859375 pbc="F F F"
N        3.63900781      -0.85882384      -2.29046154
C        4.90400934      -0.24725176       0.08356369
C        5.67437506       2.45808005       0.13520990
C        4.31709814       4.61752701      -0.43314412
C        5.84118128       6.80354309      -0.08263773
N        8.19721603       6.43315697       0.70879847
S        8.64778328       3.35156155       1.06053317
H        3.21979094      -2.73690915      -2.31000113
H        4.87154388      -0.57124531      -3.74311280
H        6.53172493      -1.50461888       0.32032749
H        3.60571074      -0.61389643       1.65396392
H        2.37251329       4.61469221      -1.06658030
H        5.25311756       8.73724365      -0.40048966
18
Properties=species:S:1:pos:R:3 energy=-1632.239990234375 pbc="F F F"
C        2.22433996      -1.01708841       0.30798757
C        5.01110029      -1.49630404      -0.20218180
N        6.39500332       0.89525777      -0.16336682
C        9.09704685       0.47522834      -0.67079610
C       10.58452606       2.97822738      -0.68483675
N       10.09070301       4.52271938       1.56996560
H        1.17809308      -2.80236936       0.28090778
H        1.40306497       0.22310106      -1.13177586
H        1.93848109      -0.14006650       2.16048598
H        5.20508051      -2.40836143      -2.05192137
H        5.75351667      -2.79042625       1.23508716
H        6.26083279       1.66887379       1.60059798
H        9.34790802      -0.44862098      -2.50670290
H        9.89237595      -0.76917523       0.78529459
H       10.07603836       4.08012676      -2.36317801
H       12.60993481       2.56910157      -0.79835260
H        8.24878693       5.09035540       1.48534369
H       11.13016605       6.14023066       1.44467676
15
Properties=species:S:1:pos:R:3 energy=-1522.2099609375 pbc="F F F"
C        1.92854106       0.17778544       0.09894606
C        4.78590155      -0.03543236      -0.08263773
O        5.90044308       2.02572966       1.26054180
C        8.21966648       1.03320777       2.20927882
O        8.05745220      -1.64043343       2.54631138
C        5.94572115      -2.29189754       1.15271401
C        5.11830425      -4.67762041       1.11958718
H        0.98396152      -1.31052506      -0.98129702
H        1.29860091       2.01144338      -0.62582058
H        1.29317737       0.07099701       2.06705809
H        5.39622641       0.09048009      -2.05866766
H        9.74246407       1.45905757       0.87072909
H        8.65403843       1.93139458       4.02022219
H        3.44190931      -5.22976017       0.08004880
H        6.12335539      -6.13834047       2.15069723
14
Properties=species:S:1:pos:R:3 energy=-1436.75 pbc="F F F"
C        5.43281126      -1.76543880       1.47878623
O        5.34191561      -0.36033297      -0.81348932
N        6.38846493       2.01664019      -0.37966487
C        5.04594660       4.10713100       0.30515298
C        6.72468472       6.09442329       0.47131661
C        9.14686012       5.15171480      -0.19653152
C        8.86742687       2.61900926      -0.74889845
H        4.60327816      -3.62441921       1.12302649
H        4.32709503      -0.83682740       2.96114421
H        7.38688278      -2.03795624       2.10309505
H        3.03036475       4.00391388       0.61344290
H        6.25552273       8.01859951       0.98615360
H       10.89372349       6.21171856      -0.29249182
H       10.20593834       1.20679796      -1.36691451
15
Properties=species:S:1:pos:R:3 energy=-1451.06005859375 pbc="F F F"
C        1.79843342      -0.17816338       0.04607152
N        4.53515387       0.01855711       0.21146035
C        5.92782545      -2.34456420       0.06629159
C        5.87141705       2.26808715      -0.02284679
C        4.35665035       4.68177748      -0.07921732
O        8.19082928       2.35029030      -0.17236193
H        0.85530895       1.57865834       0.57037604
H        1.14524961      -1.67068803       1.31870759
H        1.29325294      -0.65802151      -1.90040314
H        5.15500259      -3.67432690       1.44790816
H        7.93894720      -2.08183575       0.45929793
H        5.71254778      -3.12033463      -1.83792877
H        3.05461001       4.67635393      -1.68325460
H        5.63973665       6.28804493      -0.30254516
H        3.33060455       4.92058229       1.69723868
12
Properties=species:S:1:pos:R:3 energy=-1147.1199951171875 pbc="F F F"
C        1.85582447      -0.10446406       0.01927521
C        4.70645761       0.15395598       0.00376056
S        5.63159180       3.38489628      -0.00640617
O        5.17622423       4.56569195      -2.42788243
O        5.20247269       4.57415771       2.41404963
C        9.03260708       3.28466535      -0.02513336
N       11.22865868       3.11092377      -0.03686856
H        1.31264162      -2.09946680       0.02534123
H        1.01971507       0.78965986      -1.64867270
H        1.03738403       0.79510230       1.69300568
H        5.50301456      -0.73094606      -1.68584359
H        5.52100515      -0.72542804       1.68777108
11
Properties=species:S:1:pos:R:3 energy=-1176.75 pbc="F F F"
N        1.88972616       0.00000000       0.00000000
C        4.06481981       0.00000000       0.00000000
C        6.79358435       0.00000000       0.00000000
C        7.91581726      -2.31385636       1.22620547
O        8.44870090      -1.60394287       3.78774810
N        8.71235561       1.05620575       3.86329937
C        7.77805614       1.91087222       1.78193617
H        7.54214287       0.30702379      -1.90040314
H        9.71434498      -2.83591199       0.34132233
H        6.67458820      -3.96884060       1.21581197
H        7.68166113       3.93818927       1.33410883
12
Properties=species:S:1:pos:R:3 energy=-1328.6800537109375 pbc="F F F"
N        1.88972616       0.00000000       0.00000000
C        4.06481981       0.00000000       0.00000000
C        6.72177458       0.00000000       0.00000000
C        8.19251060      -2.04003501      -0.12636599
C       10.88109970      -1.26636219      -0.07519221
O       10.86813641       1.45100737      -0.08182514
C        8.29395103       2.30845165       0.14934506
H        7.55975485      -3.97919631      -0.23959838
H       11.83637524      -1.92787969       1.63449967
H       11.90875149      -1.93105447      -1.74145818
H        7.90534782       3.63307405      -1.38955343
H        8.08570385       3.27638817       1.96472931
19
Properties=species:S:1:pos:R:3 energy=-1809.31005859375 pbc="F F F"
C        3.37550449      -2.32613945       1.95119894
C        3.50464821      -0.35795194      -0.14278771
C        5.82897377       1.34442675       0.06381605
N        8.13124561      -0.08038895      -0.37552637
C       10.51092148       0.93883485      -0.29882240
C       12.57576847      -0.46251047      -1.68612707
N       11.12275791       2.98903656       0.86594808
H        1.61293793      -3.39903140       1.81022537
H        3.43293309      -1.43154311       3.81486583
H        4.94522429      -3.66561508       1.82258415
H        1.80587900       0.82454419      -0.04474872
H        3.47433710      -1.31245255      -1.98202038
H        5.86793995       2.23095393       1.93413472
H        5.68728209       2.85019827      -1.35094631
H        7.92343283      -1.54679751      -1.59793353
H       12.73939991      -2.37678409      -0.92369813
H       14.38943291       0.50623876      -1.48050594
H       12.09471989      -0.57502478      -3.69367766
H        9.58389759       3.71401095       1.76887810
17
Properties=species:S:1:pos:R:3 energy=-1642.1800537109375 pbc="F F F"
C        1.31989813       3.08596063      -1.07419598
C        4.09344912       3.55423474      -1.61981654
O        5.53876829       2.35025239       0.30430260
C        8.19139576       2.65468717      -0.07878269
O        9.05010605       5.21534157      -0.03494104
C        8.91181660       6.52242756       2.18378639
C        7.94338799       5.80223417       4.40425253
H        0.12468413       4.00888395      -2.48481989
H        0.81709868       3.80005026       0.80043131
H        0.91143382       1.05792534      -1.07584000
H        4.46128416       5.59096241      -1.62234879
H        4.59105206       2.77130222      -3.47154021
H        8.70441914       1.84624350      -1.91474617
H        9.19937611       1.54744005       1.35404551
H        9.72575855       8.38577271       1.91988611
H        7.08148432       3.96772575       4.69914436
H        7.95871401       7.08940220       5.99914360
20
Properties=species:S:1:pos:R:3 energy=-1908.949951171875 pbc="F F F"
C        2.02983046      -0.01496663       0.36237389
N        4.75695086       0.02702308      -0.00952422
C        5.95904350       1.96459711       1.61945748
C        8.05117798      -0.00506447       2.24607182
C        8.84155655      -0.07950078       5.01484203
C       10.34470081       0.07381270       0.48741707
C        6.00347090      -1.98014951       1.49770248
H        1.21339309      -1.65496540      -0.60214233
H        1.17835760       1.67533672      -0.47766608
H        1.45867956      -0.09501543       2.35372949
H        4.84217739       2.57518649       3.25888944
H        6.59287643       3.65592098       0.60966343
H        7.20216227      -0.13490754       6.27698994
H        9.95568180       1.59351158       5.50785255
H        9.99205875      -1.75436509       5.40801811
H        9.79178619       0.12317235      -1.50664091
H       11.53777981      -1.59466434       0.76367611
H       11.49522305       1.75362802       0.85861599
H        6.67502308      -3.59083867       0.38586318
H        4.90296984      -2.71581984       3.09593844
13
Properties=species:S:1:pos:R:3 energy=-1315.22998046875 pbc="F F F"
N        2.44849920      -0.46687573      -1.56544912
C        4.77061367      -0.47267720      -0.52749813
N        5.73550797      -2.29597950       0.73761678
O        5.98285389       1.72435617      -0.93499869
C        8.50072479       1.87693274       0.05487765
C        9.54835129       4.37651110      -0.55138427
C       10.40849781       6.42081690      -1.04696500
H        1.84047985       1.29357421      -2.01386213
H        1.12939477      -1.52897739      -0.68529028
H        4.48430109      -3.76743364       0.74723554
H        9.67726898       0.40360770      -0.80271786
H        8.45986938       1.62486207       2.11042714
H       11.16567326       8.23143959      -1.49048364
17
Properties=species:S:1:pos:R:3 energy=-1667.72998046875 pbc="F F F"
C        2.06855083      -1.11994624       0.00069920
C        4.52043295       0.24386916       0.36180696
C        4.95403051       2.75711036       0.40064085
C        2.86085629       4.68576479       0.15369143
N        7.40154696       3.66587973       0.70719218
C        8.29374313       6.07647085       0.75577706
N       10.61714268       6.73564529       1.04345012
H        2.33961320      -2.66557217      -1.34750700
H        0.55631649       0.06644277      -0.74574262
H        1.44807827      -1.93827319       1.79486191
H        6.11872530      -1.03235734       0.59613299
H        0.96944839       3.86241126       0.11599139
H        3.09782815       5.77899027      -1.58733213
H        2.89211249       5.98663330       1.76409709
H        8.72182274       2.29488349       0.89676952
H        6.84793282       7.55554104       0.51837075
H       11.73712635       5.17569542       1.23932016
17
Properties=species:S:1:pos:R:3 energy=-1777.6099853515625 pbc="F F F"
C        3.50587654      -0.47976366       0.48348644
C        1.66836357      -2.62777758       1.16305089
C       -0.16571009      -1.61787009      -0.87819356
C       -2.74497843      -1.02368355      -0.00245664
C       -2.85454464       1.36037600       0.83217871
C       -0.38767731       2.74433589       0.62980795
C        1.31426668       0.91749984      -0.84546345
H        5.00475073      -1.06932044      -0.81900728
H        4.36770535       0.50083411       2.08427334
H        2.39456654      -4.53449249       0.82938188
H        0.97267985      -2.52369142       3.11243558
H       -0.08586916      -2.62936497      -2.68155909
H       -4.30398369      -2.34367609      -0.02694749
H       -4.54441357       2.23051929       1.58689749
H        0.36736277       3.16536689       2.50902724
H       -0.63712114       4.51629448      -0.40761393
H        1.79998302       1.64568686      -2.72381353
14
Properties=species:S:1:pos:R:3 energy=-1411.699951171875 pbc="F F F"
O        1.66996992       0.12765101       0.00621720
C        4.39937687       0.01799019      -0.00026456
C        5.79911613       1.90066767       1.73327565
N        7.62445927      -0.12334242       2.38593054
C        5.68013859      -2.02147794       1.68465304
C        6.80584860      -4.13368130       0.36615333
C        7.73771048      -5.89398003      -0.72236669
H        1.14409685      -1.38010478      -0.90523553
H        5.10783529       0.07262217      -1.95161462
H        4.69283247       2.56887484       3.35248756
H        6.63513088       3.53529954       0.78346157
H        9.16912174      -0.15837795       1.23215818
H        4.51194811      -2.60249305       3.29783678
H        8.57070160      -7.46358681      -1.67303121
12
Properties=species:S:1:pos:R:3 energy=-1246.0 pbc="F F F"
C        2.02673125      -0.08297788       0.33720273
C        4.52487373       0.04295348      -0.01738548
C        6.21132183       2.28123951       0.03868270
O        8.69599056       1.39718795      -0.63774478
N        8.49821186      -1.24918461      -0.94456071
C        6.11759138      -2.16003251      -0.58847964
O        5.42818165      -4.35037613      -0.70815599
H        1.03696835      -1.88035309       0.22529314
H        0.91619593       1.59113050       0.74116951
H        6.31765699       3.11079168       1.92657578
H        5.63826227       3.71718574      -1.33267272
H       10.04606724      -2.30151629      -1.32386649
11
Properties=species:S:1:pos:R:3 energy=-1183.43994140625 pbc="F F F"
O        3.64543295      -1.48044920      -1.45340729
C        3.81129408       0.21612798       0.12047004
C        5.86913013       2.13934016       0.12266213
C        5.02958155       4.69086695       0.92581463
N        5.39142656       6.41078234      -0.76739889
N        6.51849699       5.23236799      -2.91751027
C        6.78048849       2.85182357      -2.42994213
H        2.51807904       0.25736180       1.75617921
H        7.41713715       1.49280810       1.32411218
H        4.21754742       5.04519081       2.80255842
H        7.61797714       1.46633303      -3.72950673
23
Properties=species:S:1:pos:R:3 energy=-2189.760009765625 pbc="F F F"
C        5.38946104      -1.67012107      -2.04271841
C        4.66269159      -0.10096807       0.25515082
C        5.84571648       2.56851578       0.29394689
C        4.73952770       4.04225636       2.53510547
C        8.78618717       2.56895041       0.24354790
C        9.86489964       5.25013161       0.03216314
C       10.00044918       1.21454585       2.49349356
H        4.32012177      -3.44172049      -2.05507708
H        7.39731407      -2.16033483      -2.03069973
H        4.96689939      -0.65817273      -3.79679990
H        5.15099669      -1.14092219       1.97793853
H        2.59716392       0.08600143       0.26229399
H        5.20772600       3.53790736      -1.42908645
H        5.25071764       3.18220425       4.34485817
H        2.67177033       4.08076906       2.42599273
H        5.37542057       6.00868654       2.54393053
H        9.38976574       1.57574809      -1.47306037
H        9.58648586       6.33566570       1.77067339
H        8.98417377       6.28118515      -1.53077269
H       11.90187359       5.18145895      -0.33312091
H        9.52253819       2.12471366       4.28799629
H       12.06389809       1.23117542       2.31914759
H        9.41614628      -0.76564145       2.59293103
14
Properties=species:S:1:pos:R:3 energy=-1495.81005859375 pbc="F F F"
C        1.96004283      -0.28211722      -0.56302500
C        4.76983881      -0.04537233       0.03034900
C        5.72093821       2.70763731       0.00000000
C        4.57927895       4.17398930       2.09358978
C        3.65327525       5.36890078       3.78512144
C        8.44856834       2.74518633       0.06850258
N       10.62277412       2.77510071       0.12309676
H        1.41525364      -2.27698779      -0.62532926
H        1.51822484       0.55750698      -2.40118051
H        0.79706758       0.64250690       0.87479204
H        5.81285429      -1.15817535      -1.37730801
H        5.14793539      -0.92566347       1.87141466
H        5.11320210       3.57602334      -1.78407156
H        2.84020162       6.43276024       5.29234791
17
Properties=species:S:1:pos:R:3 energy=-1643.550048828125 pbc="F F F"
C        2.80029058      -0.35188591       2.22456670
C        4.47851849       0.22697501      -0.03403397
C        6.33182955       2.27645850       0.55395430
O        6.72387218       4.05178070      -1.46079612
C        5.49874401       4.99450827       0.76777685
C        7.00164318       6.84876442       2.25380087
O        6.17876196       9.33320618       1.66541564
H        1.52935541      -1.92360890       1.79336905
H        1.64513886       1.28858531       2.72411585
H        3.92836261      -0.85910732       3.88149738
H        3.29386830       0.74296474      -1.65071356
H        5.52111816      -1.48324609      -0.57101852
H        7.95572805       1.63727760       1.62072361
H        3.50168133       5.42294693       0.69303817
H        9.02673054       6.71665382       1.85852671
H        6.71421576       6.53869820       4.27582645
H        6.43032217       9.55027866      -0.14484751
17
Properties=species:S:1:pos:R:3 energy=-1651.8499755859375 pbc="F F F"
C        1.69111598      -0.00861715      -0.18320894
C        4.55962563       0.27675039      -0.07169621
O        5.61819363      -1.02536535      -2.18953109
C        5.61362028       2.93825960      -0.09078244
C        4.21057415       5.04902697      -0.28436598
C        8.44813442       3.11791587       0.21170601
O        9.67210960       2.10216904      -1.94864774
H        0.77170748       0.89435071       1.43411314
H        1.17688370      -2.01442909      -0.18755531
H        0.91791558       0.79092598      -1.93014741
H        5.23059177      -0.68557376       1.63606822
H        4.89956856      -0.23731181      -3.69294071
H        2.16898990       5.01474714      -0.47437796
H        5.08171940       6.90970802      -0.27151585
H        9.07206535       2.07467365       1.88613570
H        9.08272266       5.07521868       0.42913792
H        8.88484955       0.45686018      -2.25561500
17
Properties=species:S:1:pos:R:3 energy=-1672.4200439453125 pbc="F F F"
C        3.21213770      -0.22612463       0.10361368
C        1.52162635      -2.40167189       0.98483080
C       -0.85784119      -2.73250628      -0.60218012
N       -2.89772487      -1.03337789       0.15798110
C       -2.47444510       1.30869210       0.57517594
N       -0.33251622       2.74798298       0.42123884
C        1.82585335       2.00501823      -1.07480061
H        4.57194662      -0.94454181      -1.28875542
H        4.33777189       0.42178687       1.72070909
H        2.63826561      -4.14587021       0.92541778
H        1.00665712      -2.11297846       2.97291708
H       -1.55305254      -4.66121721      -0.30258295
H       -0.47815740      -2.56783557      -2.63104677
H       -4.09505558       2.46429729       1.20128000
H       -0.62368524       4.64345407       0.49310514
H        3.13532019       3.60374546      -1.21611440
H        1.22943687       1.57185531      -3.01067400
15
Properties=species:S:1:pos:R:3 energy=-1430.449951171875 pbc="F F F"
N        1.81559217       0.07360483      -0.47844085
C        4.53764820      -0.01447530      -0.02071140
C        6.16494799      -1.51631629      -1.78669822
C        6.29823065       1.33082068      -1.81615913
C        8.52778625       2.65243840      -0.79064250
N       10.70926666       2.16876316      -1.76668608
O       12.54020405       3.61999726      -0.52532494
H        0.99590456       1.52805150       0.48412895
H        0.96415716      -1.53372061       0.16077790
H        5.07223272      -0.07311350       1.96488059
H        5.29093075      -2.43366480      -3.39574337
H        7.74897337      -2.55079007      -1.00059104
H        5.45717001       2.26307940      -3.43784642
H        8.24007511       4.01472330       0.76263678
H       14.08668041       3.13220215      -1.40268707
17
Properties=species:S:1:pos:R:3 energy=-1585.0699462890625 pbc="F F F"
C        3.85239577      -0.59471571       3.41851449
C        3.22283340       1.49099398       1.55193758
C        5.52699518       3.06891513       0.99310780
O        6.06239271       5.10288429       2.44655275
C        4.29498863       6.04292822       4.26926947
N        7.04618406       2.37617946      -0.81347042
N        9.06329632       3.90438199      -1.21896780
H        2.16900873      -1.72242868       3.83293152
H        4.57325077       0.17359024       5.19831514
H        5.30153227      -1.85926378       2.65336442
H        1.65574026       2.64607000       2.23628306
H        2.57392049       0.64390528      -0.22489631
H        5.13960171       7.70235348       5.16620874
H        3.93208551       4.63264465       5.73350477
H        2.54716182       6.63399696       3.33842802
H       10.58656693       2.88680243      -1.81387258
H        9.55642033       4.90011644       0.36212823
22
Properties=species:S:1:pos:R:3 energy=-2060.31005859375 pbc="F F F"
C        2.33855510      -1.35319507       3.11965442
C        5.15194130      -0.75479442       3.09663749
C        5.79648924       1.95356107       2.21502352
C        4.43140793       4.03517008       3.74231911
C        5.08478069       4.12376022       6.54236412
C        8.69882488       2.26003695       2.19064617
N        9.49715900       4.73287582       1.26934791
H        2.04772615      -3.36416602       3.50714278
H        1.46931875      -0.92006987       1.29417896
H        1.34992588      -0.29218945       4.59141111
H        6.08059072      -2.10369992       1.82324553
H        5.93449593      -1.10758734       4.98309422
H        5.13510418       2.12970257       0.25297764
H        2.38194299       3.80570054       3.54499388
H        4.85041666       5.88810301       2.91185999
H        4.63041496       2.34443212       7.48906040
H        3.99556136       5.61995125       7.46855688
H        7.08696413       4.53689241       6.84124327
H        9.53533173       0.80950201       0.97164047
H        9.47554016       1.96709156       4.08874369
H        8.87721539       4.98213053      -0.53792942
H       11.41944504       4.79943180       1.19950366
19
Properties=species:S:1:pos:R:3 energy=-1898.5400390625 pbc="F F F"
C        1.88972616       0.00000000       0.00000000
C        4.61849070       0.00000000       0.00000000
C        6.86756706       0.00000000       0.00000000
C        9.59633160       0.00000000       0.00000000
C       10.57078743      -1.34351969       2.38226438
C       10.58044434      -1.38887310      -2.35063028
C       10.57575798       2.73288417      -0.02192082
H        1.14523077       1.92918360       0.02207200
H        1.14523077      -0.98371583       1.65968978
H        1.14523077      -0.94546777      -1.68176174
H        9.91180229      -0.39831647       4.10543013
H       12.64107704      -1.37460566       2.43394828
H        9.90857124      -3.30581141       2.46701860
H        9.92315960      -0.48218253      -4.09465837
H        9.92616463      -3.35507655      -2.39568138
H       12.65141392      -1.41357183      -2.39570022
H        9.92879105       3.75320387      -1.70587468
H       12.64608479       2.78842330      -0.00839038
H        9.90637875       3.78840947       1.63119268
13
Properties=species:S:1:pos:R:3 energy=-1373.739990234375 pbc="F F F"
C        3.16062355      -0.62311828       0.09750987
O        1.69563234      -2.91815281       0.43044183
C       -0.32966271      -1.91264856      -1.10186148
C       -2.59569001      -1.01536870       0.22752303
C       -2.44761109       1.49350727       0.45136109
O       -0.32452267       2.69771624      -0.51959908
C        1.11091328       0.57647985      -1.55488551
H        4.95227289      -1.00266981      -0.86163950
H        3.52063537       0.31233394       1.90592110
H       -0.69761127      -3.06456876      -2.77836990
H       -4.10584593      -2.20164442       0.90816456
H       -3.78336406       2.75654340       1.33359861
H        1.67235088       0.92345250      -3.51524973
15
Properties=species:S:1:pos:R:3 energy=-1472.3499755859375 pbc="F F F"
C        1.62159288      -0.47783616      -0.12757541
C        4.40958166      -0.33521852       0.27735510
C        5.76245546       1.80225074       0.09622485
C        8.53712082       1.76759315       0.53360194
O        9.71602726      -0.15524100       1.06053317
N        9.63554382       4.13133812       0.28034088
N       12.26745987       4.40425253       0.63080949
H        1.20042968      -1.78032994      -1.67739654
H        0.80409735       1.36447680      -0.59252363
H        0.69659084      -1.18096542       1.58298576
H        5.35247898      -2.10455012       0.74676305
H        4.87477541       3.58596325      -0.36692813
H        8.60199547       5.68484402      -0.17459179
H       13.12416649       3.06177211      -0.48002824
H       12.66532230       3.78391194       2.42570925
12
Properties=species:S:1:pos:R:3 energy=-1231.239990234375 pbc="F F F"
C        1.81271982       0.00604712       0.07203636
C        4.33032656       0.16814783       0.18130033
O        5.51204777       2.45103145       0.60822725
C        8.13362694       2.25200558      -0.02713647
O        9.34375095       0.06309795       1.01693726
N        8.31575871      -2.23420429       0.09416506
C        5.88952065      -2.13414335      -0.20172827
H        0.66157424       1.68166733       0.34202152
H        0.83807462      -1.76353025      -0.26660258
H        9.08899689       3.91726995       0.73854280
H        8.37549305       2.28057814      -2.08756161
H        4.88269329      -3.85179090      -0.81190193
13
Properties=species:S:1:pos:R:3 energy=-1405.1500244140625 pbc="F F F"
C        1.81447721      -0.12948403      -0.00725655
C        4.58124399       0.19819447      -0.00861715
C        6.16173553       2.25746679      -0.00207870
O        5.36285400       4.66184092       0.00825810
C        8.66445065       1.35330844      -0.00827700
C        8.46249580      -1.24066186      -0.01850042
O        5.99570417      -1.96202707      -0.01885947
H        0.84308243       1.69597256       0.01613826
H        1.21418679      -1.19757617       1.65840471
H        1.20825315      -1.15811861      -1.69548118
H        6.80352449       5.80372667       0.01126277
H       10.40345287       2.41962433      -0.00583925
H        9.82050991      -2.76595426      -0.02605932
17
Properties=species:S:1:pos:R:3 energy=-1724.3800048828125 pbc="F F F"
C        2.02472806      -0.12232197       0.55550390
C        4.53881979       0.35158354      -0.63143307
C        5.94424677       2.43814349      -0.37790743
C        5.27938461       4.79255342       1.03330231
C        6.67821646       6.70960474      -0.54038608
C        8.99116611       5.23937893      -1.36056507
O        8.19054508       2.67239404      -1.72191846
H        1.94781637      -2.05513382       1.29064512
H        0.52946347       0.08675732      -0.85772777
H        1.62918961       1.15770292       2.12911654
H        5.25971270      -1.15469825      -1.83212733
H        6.03833628       4.71018028       2.95702457
H        3.25550675       5.19515944       1.10643470
H        5.54258585       7.22221184      -2.19799709
H        7.14310789       8.44297504       0.48174790
H        9.78305531       5.96403217      -3.12840390
H       10.46938515       5.26834869       0.09163282
13
Properties=species:S:1:pos:R:3 energy=-1350.1500244140625 pbc="F F F"
C        2.19117522      -0.64878076      -0.16567229
C        4.66533709      -0.89327353      -0.62748355
C        6.38169956       1.30549836      -0.41734603
N        5.86824226       3.57005167      -1.12569094
N        8.68569183       0.72051477       0.59736133
C       10.62919903       2.39313030       0.96317452
O       12.65778255       1.75224853       1.88216722
H        0.93838131      -2.26379752      -0.33055091
H        1.35349751       1.13160574       0.41596651
H        5.47347832      -2.69323778      -1.17898118
H        4.08798790       3.65387988      -1.88660812
H        9.07223511      -1.05648923       1.16841769
H       10.22434425       4.34506607       0.36464155
16
Properties=species:S:1:pos:R:3 energy=-1656.4599609375 pbc="F F F"
N        1.72242868      -0.11714412       0.41738382
C        4.47893429      -0.01035570       0.15076235
C        5.29238605       2.50299907      -1.14396465
C        7.35766745       2.26047158      -3.08295584
C        8.16597939       0.02116493      -3.94149637
C        7.09081936      -2.31472564      -3.04219460
C        5.38878107      -2.35883164      -1.16512954
H        1.10571659       1.47457218       1.30544174
H        1.25247264      -1.59137619       1.55947757
H        5.28339100      -0.02683411       2.06380773
H        5.91100645       3.82316160       0.32741395
H        3.67451572       3.40260315      -2.07429576
H        8.16582775       3.99214101      -3.83155203
H        9.62932587      -0.09151944      -5.37300158
H        7.71355963      -4.05342484      -3.92443204
H        4.66628170      -4.16522074      -0.51759601
14
Properties=species:S:1:pos:R:3 energy=-1519.8499755859375 pbc="F F F"
C        1.97797632      -0.59405428       0.73493338
C        4.74619818      -0.02766559       0.60380530
C        5.93188810       2.15048933       0.00000000
C        4.58273697       4.47653437      -0.61856407
C        5.62637615       6.67409706      -1.33172774
C        8.58884335       2.15048933       0.00000000
N       10.76393700       2.15048933       0.00000000
H        1.56163192      -2.25204325      -0.43029064
H        0.76996893       0.93974191       0.07307571
H        1.44998682      -1.03451169       2.68507409
H        5.91667604      -1.66541564       1.06370795
H        2.53412271       4.44410658      -0.48458248
H        7.65066957       6.94695473      -1.53341830
H        4.43996811       8.29801464      -1.74400938
15
Properties=species:S:1:pos:R:3 energy=-1505.1099853515625 pbc="F F F"
C        1.75400603      -0.34687814       0.02390504
C        4.54590607      -0.77457982       0.03297572
C        5.64015198      -3.03926539       0.34292859
C        6.21880531       1.45403087      -0.32401243
N        5.36510277       3.72502804      -0.63889754
N        7.34115124       5.43785715      -0.92606032
C        6.47440958       7.69526720      -1.23741162
H        1.21190023       0.95159048       1.54080713
H        0.70798588      -2.11037064       0.30655137
H        1.14732838       0.45752159      -1.78324008
H        4.50894308      -4.73041916       0.61136419
H        7.67740917      -3.28457069       0.34001842
H        8.27301311       1.07115352      -0.30726948
H        7.79209661       9.28377056      -1.49369621
H        4.43728495       8.14037323      -1.26277173
14
Properties=species:S:1:pos:R:3 energy=-1462.4100341796875 pbc="F F F"
C        1.23047626       0.38157350       0.56858081
C        3.39404273       1.04821217       1.69778669
C        5.43942547       2.27026033       0.21682718
C        5.13960171       5.13829756      -0.28884465
N        7.70464039       5.46574926       0.72259349
C        7.71796274       3.14516568       1.84335220
O        9.01416397       2.35463667       3.54610896
H       -0.26099008      -0.54019713       1.63712645
H        0.88983423       0.71155751      -1.42780149
H        3.69603968       0.66769695       3.69490600
H        6.03895998       1.15399909      -1.42479682
H        3.72448015       6.15185213       0.83078033
H        4.98819685       5.67280674      -2.27957654
H        8.40863895       6.91900539       1.74412274
18
Properties=species:S:1:pos:R:3 energy=-1715.469970703125 pbc="F F F"
C        1.18053079      -0.08545341      -0.00852267
C        3.96823597      -0.49624208      -0.63787705
N        4.24946499      -1.28960586      -3.27219319
C        5.52952766       1.84059322      -0.09219974
C        5.16942120       4.15138817      -1.69293010
C        6.60209846       2.17307162       2.54476190
O        8.13735008       1.32906330       0.48067075
H        0.95671165       0.51141655       1.96026957
H        0.09836025      -1.83108795      -0.26890802
H        0.32631791       1.37309396      -1.20267844
H        4.65928984      -2.05424571       0.54373091
H        3.41607690      -0.00774788      -4.43949604
H        3.31129146      -2.94818068      -3.54404902
H        6.40709734       5.69862032      -1.08787751
H        3.22083044       4.83514786      -1.56970096
H        5.60320807       3.76261473      -3.67821956
H        6.13781166       0.80294466       3.99191427
H        6.93327284       4.06328917       3.25461864
17
Properties=species:S:1:pos:R:3 energy=-1673.8399658203125 pbc="F F F"
C       -2.87895989       1.47007465      -0.10385935
C       -2.88432670      -1.46878970       0.15108360
C       -0.32603446      -2.62010527       1.05216169
C        1.61966538      -1.38244808      -0.51912665
O        3.83518028      -0.01551465      -0.02711757
C        1.63380051       1.36167991       0.49864203
C       -0.32890683       2.60922050      -1.04326105
H       -4.42282820       2.07582641      -1.34306622
H       -3.28090477       2.25665426       1.77445281
H       -3.31820798      -2.25302601      -1.72050118
H       -4.41224575      -2.06675577       1.41355300
H       -0.05283674      -2.30720448       3.08172750
H       -0.33427367      -4.66494036       0.73468775
H        1.33063173      -1.80905378      -2.50475645
H        1.37710011       1.78972185       2.48873162
H       -0.32227388       4.65399885      -0.72544694
H       -0.08792896       2.29499674      -3.07630396
17
Properties=species:S:1:pos:R:3 energy=-1579.280029296875 pbc="F F F"
C        4.73249769      -0.57821840      -3.22020674
C        5.25808716       0.13129817      -0.48271164
N        6.30316257       2.69607234      -0.22729626
C        4.41311502       4.71082258      -0.13177060
C        8.88131618       3.14845371      -0.16831791
N        9.59024715       5.54228306       0.44580528
S       11.20617008       1.10628343      -0.78862053
H        3.98142624      -2.50229979      -3.32622027
H        6.44836903      -0.49227366      -4.37035084
H        3.34468293       0.69600505      -4.07324791
H        6.55009317      -1.24863648       0.35541970
H        3.50812531       0.03569693       0.62238133
H        3.54431367       4.69674444       1.74376369
H        2.96001029       4.36352873      -1.55974221
H        5.21889448       6.57435703      -0.50022942
H        8.51425552       6.54298782       1.66063464
H       11.47781849       5.81417704       0.63028038
17
Properties=species:S:1:pos:R:3 energy=-1657.1300048828125 pbc="F F F"
N        2.90900660      -0.61274368      -0.92611700
C        5.36308050       0.03422294       0.19944170
C        6.93410444      -2.07794285       1.28839636
C        7.70696449      -0.78200644      -1.12272406
C        9.50781727       1.39021480      -1.14056313
N        7.89627743       3.58174920      -0.59203231
C        5.82770729       2.72978497       1.05444825
H        2.55137587       0.57368308      -2.40477109
H        1.48753572      -0.33015406       0.34073651
H        6.21495008      -3.99119616       1.14768732
H        8.01697445      -1.72061455       2.98771381
H        7.56504631      -1.77390480      -2.90106988
H       10.96294403       1.15959263       0.31384572
H       10.42584610       1.61639619      -2.97817063
H        8.91504765       4.96538782       0.26718837
H        6.39545679       2.78301859       3.04463220
H        4.17039871       3.93917203       0.80033684
13
Properties=species:S:1:pos:R:3 energy=-1369.469970703125 pbc="F F F"
C        3.14098930      -0.73663414      -2.34798479
C        4.04628181       0.48630214      -0.32062984
C        6.10406113       2.45738101      -0.28026527
O        7.03843594       3.00902987      -2.79430032
C        6.70064783       5.58300686      -2.88699126
C        5.65559149       6.50893497      -0.82771897
O        5.13410234       4.70067501       0.95999980
H        1.64175630      -2.12331510      -2.15693331
H        3.86244893      -0.37563977      -4.23523521
H        3.24382830       0.05132496       1.52028465
H        7.69643879       1.75179505       0.84576583
H        7.28769112       6.51690960      -4.59057951
H        5.14339972       8.42033577      -0.36662576
16
Properties=species:S:1:pos:R:3 energy=-1565.3299560546875 pbc="F F F"
C        4.34614325       4.04340935       1.08130133
C        6.17352724       4.71333599       2.69750857
O        8.63519764       5.31404209       2.21426773
C        9.42328930       5.32466221      -0.37152016
C       12.15044785       6.08786631      -0.45614210
C       14.20095158       4.12523413      -0.66595840
N       13.59225178       5.76772785      -2.80061197
H        2.46616817       3.62020516       1.78403378
H        4.63748264       3.88531470      -0.93754983
H        5.83037186       4.84624052       4.71490431
H        8.31037331       6.71098423      -1.43428326
H        9.16022110       3.44266534      -1.19802964
H       12.51930332       7.79914522       0.60612965
H       13.67426586       2.15740585      -0.87549120
H       15.98438072       4.46368408       0.28039756
H       14.90910816       7.16996098      -2.98268700
19
Properties=species:S:1:pos:R:3 energy=-1924.9100341796875 pbc="F F F"
C        1.82626915       0.00425188      -0.10024997
C        4.73911190      -0.00105825      -0.00427078
C        5.58803368      -0.00262672       2.76081419
C        5.79063129      -2.31100273      -1.45187664
C        6.29721022      -1.26653230      -4.02965212
C        6.30074358       1.25971031      -4.02961445
C        5.79898357       2.30544710      -1.45178211
H        1.11996508       0.00721875      -2.04644108
H        1.05722618       1.67665946       0.84820360
H        1.05131137      -1.66704082       0.84533119
H        7.65286160      -0.00786126       2.91238928
H        4.88174820      -1.67554462       3.75492358
H        4.89040327       1.67435408       3.75422454
H        4.43087864      -3.86830711      -1.52786243
H        7.55735493      -3.02076507      -0.63763142
H        6.67768764      -2.43160510      -5.66411400
H        6.68636131       2.42319584      -5.66396284
H        7.56835318       3.00868964      -0.63740462
H        4.44495726       3.86775923      -1.52744675
12
Properties=species:S:1:pos:R:3 energy=-1295.9599609375 pbc="F F F"
O        1.75786102      -0.10869705       0.00873053
C        4.07593155      -0.02966870      -0.00432747
N        5.48111296      -2.20372295       0.02173185
C        8.04326057      -2.31546259       0.01196197
C        9.36225128      -0.17710513      -0.02889391
C        8.06973553       2.31933641      -0.06487430
O        5.35276270       2.19678783      -0.04367157
H        4.44401217      -3.81072712       0.05160842
H        8.90835762      -4.17440510       0.03821026
H       11.41190529      -0.21352015      -0.03783232
H        8.64727306       3.42955065       1.58232439
H        8.62397289       3.36953282      -1.75895703
13
Properties=species:S:1:pos:R:3 energy=-1322.43994140625 pbc="F F F"
C        2.06093526      -0.19301663       0.49268940
C        4.50467253       0.02728765      -0.08927067
C        6.07259703       2.40953302      -0.23578113
N        8.50565720       1.41251361      -0.97199953
C        8.44720840      -1.19045186      -1.21883559
S       10.84704685      -3.00016689      -2.01958823
N        6.02357769      -1.98158574      -0.67720228
H        1.12527525      -2.01599765       0.53475469
H        0.93142712       1.45818830       0.94076234
H        6.26476336       3.35037112       1.59250998
H        5.41393328       3.71238589      -1.69621813
H       10.08682919       2.44137502      -1.27393997
H        5.48417425      -3.81248474      -0.72992563
19
Properties=species:S:1:pos:R:3 energy=-1779.25 pbc="F F F"
C        5.94562626      -2.16970801      -0.92133600
C        4.59940434       0.11933620       0.20713288
N        3.63915896      -0.49631768       2.72780085
C        6.37128735       2.33651400       0.42724818
C        7.01190424       3.91279125      -1.87850118
N        5.38479328       4.90474653       0.10516326
C        6.61509991       6.74123907       1.75196505
H        6.64295435      -1.74270546      -2.82323194
H        4.66673517      -3.79107404      -1.06548429
H        7.57780170      -2.73452830       0.22234517
H        2.98811054       0.60800046      -1.00121474
H        5.06314325      -1.17454040       3.82697892
H        2.34465885      -1.91221392       2.58408713
H        7.86462450       2.02930140       1.79777205
H        6.08017492       3.48909593      -3.65353990
H        8.90856552       4.66157627      -2.05749607
H        5.69257307       6.74165487       3.60412359
H        6.40893078       8.63691807       0.94898266
H        8.63776779       6.40012455       2.05095768
9
Properties=species:S:1:pos:R:3 energy=-860.010009765625 pbc="F F F"
C        1.87052655      -0.00387394       0.00317474
N        4.58640289       0.07698745       0.00719986
C        5.94330215       2.26256919      -0.13286665
O        8.23402786       2.34103060       0.15949288
H        1.26641881      -1.80621910      -0.80141395
H        1.10233390       1.56372952      -1.10137022
H        1.20959485       0.14301448       1.95460045
H        5.59319258      -1.47066045       0.51600862
H        4.79604912       3.94850707      -0.55701566
17
Properties=species:S:1:pos:R:3 energy=-1644.6800537109375 pbc="F F F"
C        3.99421954      -1.09148693      -2.58563662
C        4.65794802      -0.06169956       0.01534458
C        6.11010838       2.42357373      -0.16971630
O        8.49118233       2.01422119      -1.47137856
C        4.56884766       4.75602484      -1.01950729
O        5.44001150       6.19355869       1.14712048
C        6.30541134       3.88631630       2.35272789
H        2.92888665      -2.85545182      -2.40547013
H        5.69438744      -1.48381293      -3.69719243
H        2.83668685       0.25237292      -3.65072417
H        5.79066896      -1.46353614       1.03664708
H        2.90743804       0.19547327       1.09434044
H        9.30642891       3.66627645      -1.48532474
H        2.50982094       4.55905867      -1.01104128
H        5.17692375       5.61966753      -2.79592538
H        8.21753120       4.09879732       3.10882616
H        5.02298641       3.30463958       3.86823153
22
Properties=species:S:1:pos:R:3 energy=-2062.030029296875 pbc="F F F"
C        6.20446205      -2.11133432      -1.28881216
C        5.03455162      -0.25314772       0.57273817
C        6.14550257       2.43546009       0.39534959
N        4.73822355       4.09223986       2.11913896
C        9.03759670       2.59735298       0.87579358
C       10.02796364       5.29323626       0.46526948
C        9.85669804       1.65411508       3.48877454
H        5.19463015      -3.91477561      -1.21346879
H        8.18529224      -2.48937392      -0.84400839
H        6.08627892      -1.39355969      -3.22408056
H        5.22267389      -1.00667596       2.49373937
H        2.99805045      -0.16884702       0.18296328
H        5.79493952       3.13180542      -1.52704990
H        4.88250446       3.43331122       3.92263675
H        2.86295390       4.03120136       1.68539000
H        9.98784542       1.41190886      -0.53518933
H        9.28883553       6.60944939       1.87971056
H        9.50003147       5.99217033      -1.40962231
H       12.09400177       5.33426237       0.58900875
H        9.03141689       2.78666568       5.00983429
H       11.91549778       1.76090348       3.68139434
H        9.31975174      -0.31926924       3.78264594
14
Properties=species:S:1:pos:R:3 energy=-1363.989990234375 pbc="F F F"
C        0.80175412       2.67987728       0.50098532
C        2.59089017       0.62215453      -0.39141896
N        1.74223304      -1.74756205       0.72875398
N       -0.65163428      -2.56656933       0.34564981
C       -2.36572933      -0.83892500       0.02333812
C       -1.91140127       1.97079539      -0.10697740
H        1.28157449       4.49441147      -0.37475160
H        1.00259423       2.93361092       2.55026102
H        4.51861858       1.04146588       0.22661597
H        2.59911036       0.48193684      -2.45774007
H        3.00394654      -3.16939187       0.38586318
H       -4.33028841      -1.46882749      -0.26643249
H       -2.40034914       2.57093453      -2.02824306
H       -3.22665071       2.91664100       1.18020952
11
Properties=species:S:1:pos:R:3 energy=-1149.6800537109375 pbc="F F F"
C        1.70009208       0.07163952      -0.01479656
C        4.50170565       0.16089128       0.00018897
C        6.12705898       2.20258927       0.00544241
C        8.68140221       1.35362971       0.02014448
N        9.05849648      -1.12803423       0.02594594
S        6.26474428      -2.55322790       0.01320919
H        0.90098363       1.98065972      -0.00081258
H        0.98583233      -0.92466187       1.65205526
H        1.00404930      -0.89282000      -1.70785892
H        5.53822041       4.15822887      -0.00081258
H       10.34063816       2.55220747       0.02696639
16
Properties=species:S:1:pos:R:3 energy=-1482.030029296875 pbc="F F F"
N        4.37753153      -0.85398614      -2.70193052
C        4.55888891       0.07383160      -0.10830020
C        6.02308655       2.53835583      -0.02324363
C        4.66316366       4.94667959      -0.95121253
N        5.83403826       6.33831167       1.18529296
C        6.06632328       3.90619612       2.55249095
H        3.35715508      -2.48878813      -2.72063875
H        6.13257694      -1.32099414      -3.34600568
H        5.50348711      -1.35423446       1.05482626
H        2.64807320       0.32369119       0.65076500
H        7.93458223       2.34227777      -0.81951755
H        2.59446168       4.89129162      -0.84948862
H        5.21636200       5.61961079      -2.82629323
H        7.53885460       7.11217308       0.72282022
H        7.80617523       3.69169331       3.64805961
H        4.45296955       3.51097894       3.79156542
12
Properties=species:S:1:pos:R:3 energy=-1314.3299560546875 pbc="F F F"
C        5.20241594      -2.24934101       0.68555486
C        4.32250309       0.07889607       0.21397369
C        5.76587582       2.35849166       0.03841813
N        4.70090151       4.60724688      -0.44359431
O        6.65007877       6.34517145      -0.47209138
C        8.86162472       5.14589453      -0.01116828
C        8.41553593       2.61853671       0.32667696
H        3.90989995      -3.84084940       0.77276570
H        7.18893385      -2.64448285       0.99369359
H        2.29571486       0.29285085      -0.07094032
H       10.52431965       6.32759666       0.01128167
H        9.80427742       1.17988825       0.72278243
16
Properties=species:S:1:pos:R:3 energy=-1560.6700439453125 pbc="F F F"
C        1.42708337       2.00097442      -0.93991196
N       -0.78495443       0.75730777       0.14307116
C        1.51378405      -0.72693986      -0.14446956
C        2.93716359      -1.64529002       2.13831949
C        2.51675606      -0.54705679       4.79489660
O        2.61515427      -3.06417203       5.89800549
C        2.17428112      -4.14125919       3.41458392
H        1.34890544       2.44317031      -2.93595409
H        2.33369827       3.40364242       0.24282981
H       -2.07389879       0.32593995      -1.23111880
H        1.52924192      -2.15661216      -1.61346710
H        4.96155167      -1.65931177       1.66227865
H        0.68891853       0.34551752       5.17013931
H        4.03917646       0.66210335       5.49706221
H        3.42138696      -5.74361467       3.03129077
H        0.19991413      -4.71720982       3.18947983
15
Properties=species:S:1:pos:R:3 energy=-1498.6700439453125 pbc="F F F"
C        1.82995415       0.16128813      -0.27489847
C        4.61573172      -0.22546323       0.03031121
C        5.82485390      -2.45681405      -0.02420739
N        4.85000086      -4.83148193      -0.41471928
C        6.07972145       2.13412452       0.50368762
N        8.32035065       2.33122277      -0.74160415
O        5.25530958       3.86422539       1.79752636
H        1.45707333       1.59394622      -1.72201300
H        0.98857242       0.79765338       1.50526130
H        0.84550124      -1.56008232      -0.85719866
H        7.85976791      -2.53975415       0.28604785
H        2.95197892      -4.97186947      -0.14265543
H        5.81464958      -6.22876406       0.49221697
H        8.85790253       1.09014523      -2.08792067
H        9.25298691       3.99265122      -0.60038489
18
Properties=species:S:1:pos:R:3 energy=-1768.81005859375 pbc="F F F"
C        4.65690899       6.44028091      -0.98602128
C        5.41763687       4.05756330      -1.36738694
C        6.12492371       2.25888419       0.71475112
C        8.86529064       1.43978238       0.36483052
C       10.96097851       3.33289099       1.13332546
C       12.28459930       1.00127137       2.24941659
N        9.76606655      -0.19653152       2.47707200
H        4.14802456       7.64721155      -2.56617260
H        4.51725817       7.23882294       0.89937735
H        5.50477219       3.33852243      -3.29275322
H        4.87279129       0.61215788       0.60626191
H        5.83640003       3.12454867       2.57567787
H        9.20612240       0.56636983      -1.49112618
H       10.39763260       4.73589945       2.55009103
H       11.94724560       4.28094769      -0.41322643
H       13.55245399       0.03063246       0.92912167
H       13.27005386       1.29833639       4.04023457
H        9.73677635      -2.08444357       2.10160232
15
Properties=species:S:1:pos:R:3 energy=-1480.8800048828125 pbc="F F F"
C        4.95049667      -2.08489704      -0.44871548
C        7.20958853      -0.55463463       0.44289511
N        6.90311289       2.03950572      -0.44070303
C        8.58566856       3.66633320       0.21461619
N       10.73638439       3.27262783       1.61807799
C        8.12432957       6.35393953      -0.73344052
O        9.82653809       7.91326618      -0.62194669
H        5.11063194      -4.04828453       0.18186724
H        4.82050228      -2.07469249      -2.51507425
H        3.18469882      -1.30341971       0.29759407
H        8.93475723      -1.39410770      -0.33344218
H        7.29874611      -0.62466788       2.51033115
H       11.50801659       1.52931762       1.50195432
H       12.03080940       4.69047022       1.44114292
H        6.22107315       6.70828199      -1.49496233
20
Properties=species:S:1:pos:R:3 energy=-1916.77001953125 pbc="F F F"
C        3.97341371      -0.96385479      -2.51220202
C        4.56013584       0.11963856       0.08295897
C        6.18059492       2.48332691      -0.16041885
C        4.88804102       4.91961861      -1.11873674
C        6.25610828       6.25217772       1.08086669
C        8.77441406       7.50548220       0.48681235
N        6.53894377       3.75668097       2.30964208
H        2.84163785      -2.68520641      -2.33377409
H        5.71332264      -1.43479347      -3.52781630
H        2.91380644       0.38892454      -3.66346097
H        5.56231451      -1.31103528       1.19742501
H        2.78160119       0.52885878       1.07296765
H        7.98110723       2.09595203      -1.11752737
H        2.82313752       4.93426371      -0.94093245
H        5.40140438       5.52264881      -3.02730346
H        5.03390932       7.54603529       2.14208007
H       10.05313492       6.25792265      -0.55884874
H        9.72965145       8.08814144       2.22817612
H        8.47525120       9.20219135      -0.66066718
H        8.24190807       3.43215847       3.14601612
15
Properties=species:S:1:pos:R:3 energy=-1518.239990234375 pbc="F F F"
N        3.04793930       0.92598468      -4.40230608
C        4.89078140       1.77539766      -3.56891799
C        7.23549700       2.90057850      -2.55426717
N        9.40794468       1.18257177      -2.77967381
C       11.73576641       2.27757359      -1.75895703
C       12.43526745       1.76715851       0.94437176
C       13.89398479       0.53469801      -1.15309203
H        6.93765688       3.38786316      -0.56313837
H        7.63054419       4.66021585      -3.57481384
H        9.63917160       0.69458777      -4.63224792
H       12.26521111       4.11024904      -2.53096700
H       11.20584965       0.57655543       2.07066751
H       13.35295582       3.26193190       2.00080419
H       15.79644775       1.19893670      -1.51847053
H       13.64102554      -1.47861624      -1.43483126
13
Properties=species:S:1:pos:R:3 energy=-1389.3900146484375 pbc="F F F"
O        2.66749954       0.57364529       1.56569481
C        4.54923201      -0.01702643       0.37210599
C        5.45444870      -2.67205381      -0.17256980
C        7.68978691      -2.37570691      -2.00583100
C        8.38437462       0.36388567      -1.98850214
O        6.65678692       1.98674464      -3.27931738
C        6.40825033       1.82375574      -0.58511591
H        3.94038129      -3.80774140      -0.99754864
H        6.08108187      -3.52333760       1.60611606
H        9.27539921      -3.56357002      -1.41171992
H        7.14346695      -2.96549058      -3.91390634
H       10.36136818       0.84155172      -1.87657368
H        6.93769503       3.41511297       0.57459015
13
Properties=species:S:1:pos:R:3 energy=-1264.780029296875 pbc="F F F"
N        1.88364124       3.27748442      -2.89345407
C        4.25091982       3.78338289      -2.65829659
N        5.44830704       4.01177502      -0.39404568
O        7.97534370       3.23702526      -0.49856645
C        9.47198772       5.29482365       0.42858988
C       12.15388680       4.59889412       0.30927259
C       14.35139275       4.03284550       0.20866355
H        1.43054163       3.21763659      -4.77898502
H        5.48343706       4.09775782      -4.31237411
H        4.43904209       3.21531224       1.03851795
H        8.93390751       5.71077108       2.38549590
H        9.13083553       6.97558403      -0.73359168
H       16.29756546       3.52715492       0.11432843
18
Properties=species:S:1:pos:R:3 energy=-1762.4000244140625 pbc="F F F"
C        1.64132166      -0.20930606       0.48898554
C        4.42390537       0.26367348       0.00825810
C        5.73815346       2.21162200       1.73189616
N        7.98501873       0.54535604       1.77925277
C        6.32051039      -1.63790119       1.18591654
C        7.53753185      -3.41583109      -0.60123527
C        9.53344154      -4.79716444       0.11275996
H        0.98621029      -1.84686720      -0.59195673
H        0.51578188       1.42664874      -0.09078244
H        1.25950241      -0.57065952       2.49024320
H        4.76832724       0.65513027      -2.00481057
H        4.87322569       2.46512890       3.59766054
H        6.05942583       4.07364464       0.89423728
H        9.24618435       0.92604142       0.37167135
H        5.60900974      -2.59238291       2.88687801
H        6.75960684      -3.62351203      -2.48901486
H       10.33349514      -4.63364649       1.99742162
H       10.41692638      -6.11950016      -1.18226933
19
Properties=species:S:1:pos:R:3 energy=-1897.469970703125 pbc="F F F"
C        1.39866185       2.04258609      -0.75815815
C       -0.93637818       0.55656213      -0.11051118
C        1.59874606      -0.72170532      -0.12608252
C        2.96259928      -1.69958186       2.18227458
C        2.61704397      -0.45729482       4.82067251
C        2.98089170      -3.11145306       5.96796322
C        2.02639103      -4.18328667       3.43382144
H        1.67320132       2.60016870      -2.70958376
H        2.07132888       3.41127682       0.60769814
H       -2.24119639       0.11207966      -1.62712979
H       -1.85246074       0.94202846       1.67871928
H        1.97395122      -2.00758839      -1.68238533
H        4.98638248      -1.83127689       1.70147157
H        0.74239779       0.33720273       5.18230915
H        4.04563904       0.93923169       5.34469366
H        4.95633602      -3.57878232       6.38204002
H        1.82303774      -3.54429483       7.62209702
H        2.95326400      -5.91522074       2.79382777
H       -0.02626719      -4.45196819       3.36114240
15
Properties=species:S:1:pos:R:3 energy=-1422.969970703125 pbc="F F F"
N        5.22768164      -2.07505155      -0.89988756
C        4.02016544       0.08201411       0.31758738
C        5.90118027       2.21371961       0.49096975
O        8.06639004       1.69194734       2.05726933
C        6.42087364       3.85061932      -1.77481186
C        5.03001642       4.92029905       0.46171680
H        4.21327686      -3.66691899      -0.54148215
H        6.96173239      -2.32343721      -0.08936515
H        3.40917921      -0.44049516       2.22526598
H        2.34203219       0.63179213      -0.75972658
H        7.63101625       1.81334341       3.83667326
H        5.36890078       3.47747397      -3.49149585
H        8.35508442       4.44280291      -2.09330630
H        6.02365303       6.27545929       1.63170290
H        3.03274584       5.30973339       0.23734960
18
Properties=species:S:1:pos:R:3 energy=-1725.1199951171875 pbc="F F F"
C       -0.42344984       2.80692363       0.94769764
C        1.90384233       1.22019613       1.52105951
C        4.28782654       2.40093493       0.39304414
N        6.47563791       0.80458868       0.96406269
C        8.78900242       1.90652585      -0.10104366
C       11.00306225       0.23128358       0.58556944
O       12.38209057      -0.77811360      -0.98532212
H       -2.10054398       1.95378780       1.80538762
H       -0.74281353       2.93994141      -1.09143019
H       -0.22028537       4.72229338       1.70041335
H        1.62117720      -0.68806821       0.76180530
H        2.10823512       1.03753519       3.57607985
H        4.56170464       4.29092550       1.19683909
H        4.06145620       2.60007429      -1.65710080
H        6.19758368      -0.93722856       0.17468628
H        9.15923786       3.77975464       0.69776249
H        8.67333317       2.05203462      -2.16095853
H       11.35421181      -0.00653845       2.62758851
14
Properties=species:S:1:pos:R:3 energy=-1448.8800048828125 pbc="F F F"
C        1.68818688      -0.20900372       0.06026337
C        4.55367327      -0.03065136      -0.04367157
C        5.42425108       2.66031861      -0.06425069
N        5.78199482       4.02632618       1.98527074
C        6.58004522       6.41900301       1.31974697
C        6.82506704       6.85335636      -1.23469031
S        6.03177929       4.17848682      -2.87682462
H        1.09468055      -2.19002247       0.11610477
H        0.81853485       0.67432988      -1.59814143
H        0.93923169       0.73323262       1.74527550
H        5.25578213      -1.04609573      -1.70657384
H        5.35567284      -0.98042774       1.61342931
H        6.96148634       7.79015017       2.79070973
H        7.41449165       8.56096935      -2.18484473
15
Properties=species:S:1:pos:R:3 energy=-1500.81005859375 pbc="F F F"
C        1.88972616       0.00000000       0.00000000
C        4.61849070       0.00000000       0.00000000
C        6.86756706       0.00000000       0.00000000
C        9.59633160       0.00000000       0.00000000
O       10.52435684      -1.16749167      -2.26472330
C       10.69159794       2.68467712       0.12547782
O       13.39139271       2.59922385       0.08524554
H        1.14519298       1.92918360       0.02243105
H        1.14502287      -0.98399931       1.65942526
H        1.14513624      -0.94507092      -1.68196964
H       10.34396362      -1.11639357       1.57351828
H        9.40316391      -0.64832723      -3.62770724
H       10.09624004       3.66610646       1.84603572
H       10.09361267       3.80658865      -1.50832272
H       13.83334351       1.29079628      -1.14179146
13
Properties=species:S:1:pos:R:3 energy=-1321.22998046875 pbc="F F F"
C        3.17763114       2.92841411      -2.74482727
C        4.84569263       2.43298459      -1.28559959
C        6.83105755       1.83842003       0.46689463
N        9.03937244       2.08724022      -0.51780385
N       10.87781143       1.52075708       1.15632343
C       12.97064590       0.43705586      -0.29491067
C       13.03990364       3.13586831       0.54225689
H        1.71332026       3.37157369      -4.05230999
H        6.37586021       1.24682236       2.41168737
H       12.66874313       0.02757110      -2.27821612
H       14.12717724      -0.91697073       0.70962995
H       14.24382973       3.62844419       2.11959243
H       12.78634071       4.60892868      -0.85712308
15
Properties=species:S:1:pos:R:3 energy=-1433.77001953125 pbc="F F F"
N        2.82345867      -4.71974230       1.61157739
N        4.10660172      -2.56142926       2.08476472
C        4.49087763      -1.20642006       0.07798900
C        5.91506958       1.25201917       0.21937831
O        4.30744171       3.13267469      -0.84117377
C        5.20933247       5.55091953      -0.88726419
C        7.43348360       6.43856144      -0.07451190
H        2.71251297      -5.76419401       3.23623157
H        0.98687166      -4.34725809       1.13162470
H        3.84961772      -1.80725849      -1.81810546
H        7.63383198       1.05138695      -0.91676283
H        6.36973763       1.67990983       2.19300818
H        3.79910541       6.78198147      -1.72435617
H        8.87387085       5.25801182       0.77257675
H        7.85797262       8.43930912      -0.24530534
17
Properties=species:S:1:pos:R:3 energy=-1615.6800537109375 pbc="F F F"
C        5.43283033      -2.09476137      -0.89013660
N        4.46162462       0.20679273       0.26571438
C        6.34449100       2.23650980       0.30401915
C        6.54750443       3.98575377      -1.92958045
C        5.42659426       4.92292547       0.50744814
C        6.82442474       6.78670597       2.08829856
H        3.95200324      -3.53815317      -0.91196293
H        7.04586267      -2.84475589       0.16671164
H        6.01082182      -1.75995862      -2.84836531
H        3.86552930      -0.18611912       2.05570078
H        8.09541702       1.78204954       1.28435242
H        5.27764606       3.69173121      -3.51016641
H        8.41530991       4.62737226      -2.46987200
H        3.40560770       5.25623560       0.55174333
H        8.87024212       6.47660160       2.03655791
H        6.20425415       6.65572882       4.05771446
H        6.44920063       8.70895386       1.42171657
11
Properties=species:S:1:pos:R:3 energy=-1257.1300048828125 pbc="F F F"
C       -2.64123249      -0.14437507      -0.03373161
C       -1.43441546       2.19015479       0.00927856
C        1.18393230       2.23033047       0.08237316
N        2.63501525       0.13120368       0.11434733
C        1.41001916      -2.10851860       0.07120488
C       -1.19649899      -2.33883834      -0.00234326
H       -4.69109392      -0.25061548      -0.09127377
H       -2.50488877       3.93658304      -0.01351154
H        2.21317172       4.00540686       0.11818347
H        2.61865020      -3.76667762       0.09819017
H       -2.08117437      -4.18835115      -0.03443081
11
Properties=species:S:1:pos:R:3 energy=-1132.9599609375 pbc="F F F"
C        1.77889371      -0.19318670       0.00432747
C        4.58814144       0.00306136      -0.40228489
O        5.85371017      -1.82073224      -1.09377348
C        5.89142895       2.45681405       0.03807798
C        4.75528812       4.58604431       0.79317474
H        0.78378284       1.09562540      -1.26658893
H        1.31470132       0.21814999       1.97455597
H        1.16186035      -2.12144446      -0.41719484
H        7.91466427       2.41406846      -0.30590886
H        2.74320197       4.71592474       1.15898788
H        5.85971928       6.29475355       1.06752515
15
Properties=species:S:1:pos:R:3 energy=-1447.75 pbc="F F F"
C        2.16362309      -0.47192129      -0.04280230
C        5.02468729      -0.35300085      -0.15217964
O        5.77762985       2.22201562       0.24265973
C        8.29582214       2.67932940       0.18838680
N        9.98578548       0.96803111      -0.20363688
N       12.40125179       2.01110315      -0.15025212
C       14.08388329       0.30173257      -0.58878195
H        1.49490571      -2.40824819      -0.31577325
H        1.32832634       0.73500896      -1.50191653
H        1.47355175       0.22338453       1.78027320
H        5.67823029      -0.99805886      -2.00779629
H        5.82937050      -1.55010450       1.33301282
H        8.68047619       4.69852066       0.52010930
H       16.09950256       0.81505775      -0.61270589
H       13.61077118      -1.69623709      -0.95189285
10
Properties=species:S:1:pos:R:3 energy=-1146.1099853515625 pbc="F F F"
C        1.81638587      -0.07424734      -0.00474321
C        4.08305550       0.02717426      -0.00041574
C        6.77395010       0.15034661       0.00515895
C        8.16764164       2.34887290       0.00064251
S       11.32862473       1.61938190       0.01124387
C       10.55627441      -1.53355050       0.02065471
N        8.12967777      -2.07244372       0.01644062
H       -0.19231743      -0.17920274      -0.00814472
H        7.51039505       4.28109884      -0.00784236
H       11.99724770      -2.98463345       0.02963091
22
Properties=species:S:1:pos:R:3 energy=-2062.89990234375 pbc="F F F"
C        1.82243299      -0.19037101      -0.00164406
C        4.71516895       0.02466093      -0.07689296
C        5.69474649      -1.54335821      -2.31886411
C        5.70219183       2.81331086      -0.06527114
C        4.92704535       4.30789518      -2.43209648
C        4.78416300       4.24466515       2.29688644
N        8.48505974       2.77791643       0.01946418
H        1.03456831       0.70598280       1.68520105
H        1.24704921      -2.17911887       0.05274226
H        0.94457960       0.66297263      -1.66756988
H        5.41994238      -0.89986867       1.64632940
H        4.95469189      -0.84846812      -4.12066126
H        5.10339451      -3.51895356      -2.12828517
H        7.75991488      -1.53553474      -2.41648722
H        5.65617704       3.44869351      -4.16801786
H        5.65377712       6.24854946      -2.36408520
H        2.86970019       4.44276524      -2.60493088
H        5.23051643       3.20484328       4.03186321
H        2.73993278       4.56246042       2.24932218
H        5.67165375       6.11250830       2.44245219
H        9.07814980       1.90200937       1.62941635
H        9.16719341       4.57740784       0.10489870
17
Properties=species:S:1:pos:R:3 energy=-1763.7099609375 pbc="F F F"
C        4.21949387      -1.75561225       2.17307162
C        3.92817378      -0.01473986      -0.05567133
C        2.49109364      -0.63398421      -2.05600309
C        5.28108549       2.40342927       0.07016553
C        3.92386508       4.55611086       0.01336036
C        8.00251770       2.62881684       0.48775721
C        9.72303772       0.96478081      -0.33134457
H        6.17687225      -2.38829255       2.38500452
H        3.04387641      -3.45016742       1.98075426
H        3.64401555      -0.80173522       3.91846061
H        1.48763025      -2.41992664      -2.14181566
H        2.29552603       0.62088841      -3.66892219
H        1.88305545       4.53430319      -0.19441502
H        4.80313587       6.40248680       0.16298889
H        8.65367985       4.29421377       1.50444877
H        9.19635201      -0.70938432      -1.39308727
H       11.71792698       1.26456690       0.03125607
16
Properties=species:S:1:pos:R:3 energy=-1615.27001953125 pbc="F F F"
N        1.95603657       0.05368712       0.14870255
C        4.70320702       0.04123382      -0.11935510
C        5.83982086       2.00174904       1.71997201
C        7.85744333      -0.01090372       2.36272454
C        5.87629223      -2.04296398       1.59950197
C        6.87631655      -4.23627472       0.29806650
C        7.70242929      -6.05840540      -0.76864612
H        1.10673702      -1.46194887      -0.68689656
H        1.11635566       1.61153960      -0.61215788
H        5.41510487       0.14458294      -2.06006598
H        4.66051817       2.51428056       3.34674287
H        6.56167698       3.73196340       0.85101926
H        9.53244019       0.08337472       1.14455044
H        8.47018719      -0.05119268       4.33586311
H        4.68260908      -2.57492185       3.21616268
H        8.43766499      -7.68115091      -1.70984316
19
Properties=species:S:1:pos:R:3 energy=-1923.9100341796875 pbc="F F F"
C        5.79956961      -2.12671661      -1.21995056
C        4.80523348       0.08936515       0.31877789
C        6.32425213       2.51244760      -0.10535223
C        6.23120165       3.51857567      -2.82814527
C        6.40870380       6.31151533      -2.45598269
C        5.95498037       6.96566296      -0.05750437
C        5.40263271       4.71346807       1.55127621
H        4.71516895      -3.83535028      -0.78973544
H        7.78614426      -2.50248861      -0.78053248
H        5.63795996      -1.77037108      -3.25083923
H        4.87029648      -0.41290516       2.32789683
H        2.81314087       0.40311638      -0.15667719
H        8.31095886       2.13344407       0.37975937
H        4.46640539       3.04196763      -3.79848170
H        7.82352304       2.80187798      -3.93633723
H        6.78965378       7.63061953      -3.96989894
H        5.91850901       8.88664532       0.63685662
H        6.44793463       4.78061008       3.33453512
H        3.37731862       4.61216021       1.96489942
18
Properties=species:S:1:pos:R:3 energy=-1751.530029296875 pbc="F F F"
C        1.76545775      -0.16279991      -0.12768880
C        4.66125536      -0.06540342       0.12096137
C        5.43320847      -1.52034140       2.52036548
C        5.85866117      -1.37708127      -2.18148088
C        5.47553825       2.69448495       0.11251429
C        6.74821186       3.93981433       1.91219497
H        1.11760294       0.78355604      -1.85333002
H        0.84170294       0.76316589       1.47935319
H        1.08666813      -2.11830735      -0.20017868
H        4.59322500      -0.68472338       4.21955061
H        7.48981619      -1.54405749       2.76610541
H        4.80215311      -3.49149585       2.42816591
H        5.30453682      -0.45857984      -3.95398736
H        5.27271366      -3.36008430      -2.30032587
H        7.92742014      -1.33905995      -2.07565618
H        4.94836140       3.76393771      -1.57013559
H        7.36008644       3.05383515       3.65537286
H        7.21523905       5.92393255       1.66915727
16
Properties=species:S:1:pos:R:3 energy=-1602.280029296875 pbc="F F F"
C        1.79416263       0.01103600       0.04295348
C        4.66820955       0.01855711       0.04291568
C        5.72093821       2.70763731       0.00000000
C        8.44970226       2.70763731       0.00000000
C       10.69877911       2.70763731       0.00000000
C       13.42754364       2.70763731       0.00000000
H        1.08249187      -1.93182921       0.07390719
H        1.04953504       0.93964744      -1.64927733
H        1.04944050       0.99312669       1.70468414
H        5.34947443      -1.03893363      -1.60420740
H        5.34938002      -0.98581344       1.72297668
H        5.01858330       3.75254250       1.64563024
H        5.01858330       3.69949794      -1.67813349
H       14.17226601       4.63672638      -0.02207200
H       14.17213345       1.72388375      -1.65963304
H       14.17213345       1.76211298       1.68170512
14
Properties=species:S:1:pos:R:3 energy=-1326.699951171875 pbc="F F F"
C        4.33395481      -0.75152516      -0.50582302
N        6.39812136       0.34625453       0.19048439
N        6.96505833       2.36098599      -1.27633989
C        9.72430420       2.66217065      -1.15190148
C       11.37180519       1.22108436      -2.96651101
C       11.05472755       4.02381277      -3.26293349
H        3.65890670      -2.42162728       0.53475469
H        3.17666745      -0.12103696      -2.12488365
H        6.14087296       3.95755887      -0.55677003
H       10.47556496       2.95655203       0.74033803
H       10.45458889      -0.00810693      -4.32308865
H       13.15672684       0.51141655      -2.26043367
H       12.64039707       5.22352409      -2.77619672
H        9.94579887       4.69158506      -4.84930182
15
Properties=species:S:1:pos:R:3 energy=-1563.949951171875 pbc="F F F"
C        3.22820020      -1.34582520       0.37212488
C        6.01488495      -0.77614832      -0.02702308
C        6.56224394       2.04572296       0.21193279
C        9.32933235       2.64297104      -0.18288769
O       10.98588467       1.07404470      -0.56483912
C        9.99546051       5.29503155      -0.07485205
C       10.55404472       7.49455929       0.01354934
H        2.87758040      -3.37533426       0.18294439
H        2.06231475      -0.36006841      -1.02370238
H        2.61553216      -0.76172972       2.25967789
H        6.58992863      -1.45076168      -1.90015745
H        7.13432074      -1.83422482       1.35918558
H        6.01881552       2.71221066       2.09653783
H        5.46361399       3.09463453      -1.19666910
H       11.07167912       9.43844509       0.08823131
13
Properties=species:S:1:pos:R:3 energy=-1339.5999755859375 pbc="F F F"
O        1.89121902      -0.00948642      -0.06508217
C        4.57313728       0.00000000       0.00000000
C        5.48402309       2.57223845       0.00000000
C        6.23477364       4.69232225       0.00000000
C        7.38397264       7.13182640       0.11204186
C        7.27591801       8.85606956      -2.14531159
O        5.62943745       9.19034290      -0.02286569
H        1.36704683      -1.76647818      -0.01160292
H        5.26698780      -1.03281093      -1.65167737
H        5.18744946      -1.00232959       1.70139599
H        8.97657681       7.34649944       1.38235354
H        6.44345570       8.17034435      -3.88240457
H        8.79380322      10.20559788      -2.39415073
17
Properties=species:S:1:pos:R:3 energy=-1665.72998046875 pbc="F F F"
C        1.85506856      -1.63465095       0.27111900
C        4.67181873      -1.08203828       0.42106879
C        5.21566296       1.73140490       0.04142280
N        7.93945742       2.17885423       0.23502524
C        8.59203625       4.86547804      -0.09853032
C        8.29797649       5.81126690      -2.71041536
N        8.06378269       6.52941942      -4.77118063
H        1.50694323      -3.65663886       0.53301615
H        1.08791530      -1.08436263      -1.56958759
H        0.81963092      -0.60972011       1.73975742
H        5.65455198      -2.19835615      -1.02266312
H        5.38399982      -1.70260549       2.26598954
H        4.21803904       2.82326984       1.49256241
H        4.50040150       2.32016802      -1.81120801
H        8.86536694       1.13215387      -1.09522855
H       10.57420826       5.09419155       0.45765388
H        7.49125242       6.03166580       1.21318531
12
Properties=species:S:1:pos:R:3 energy=-1277.0400390625 pbc="F F F"
N        1.85493624       0.06787896      -0.01545796
C        4.38535500      -0.04248104      -0.00255113
C        6.02295399       1.97206151       0.00478101
O        8.45386028       1.13166249       0.01804688
C        8.33924770      -1.42910540       0.01842483
O       10.56523228      -2.55738521       0.03046239
C        5.87300444      -2.25270462       0.00582036
H        0.88951302       1.72688842      -0.00462983
H        0.74130177      -1.49379075      -0.00319364
H        5.79505301       3.99994540       0.00236216
H       10.23471928      -4.36065626       0.02864825
H        5.23951149      -4.19029760       0.00298577
14
Properties=species:S:1:pos:R:3 energy=-1438.2900390625 pbc="F F F"
O        2.34588718      -0.59002918      -1.48643970
C        4.54084206      -0.23494965      -0.83917069
C        5.41450024       2.25414085       0.04291568
C        7.81545353       2.58161163       0.75938642
N        8.79537106       4.84325457       1.61520565
C       10.66633224       4.69636631       3.66213799
C       11.46415615       5.35280037       1.03927374
H        5.96356010      -1.75544214      -0.88378710
H        4.03849602       3.76845407       0.08471642
H        9.15409756       1.02020645       0.70156085
H       11.05457687       2.83090425       4.39907455
H       10.45763111       6.20090961       5.02969503
H       11.81390667       7.31427956       0.58388758
H       12.42948437       3.95805025      -0.09928621
17
Properties=species:S:1:pos:R:3 energy=-1656.7099609375 pbc="F F F"
C        1.87311542      -0.14747423       0.18058223
C        4.77615070      -0.02091927       0.13212965
C        5.63983107      -1.56805694      -2.05932903
N        6.32360935      -2.81748724      -3.73067832
N        5.73573446       2.63023424       0.04900060
C        4.80024433       4.15836143       2.16173339
C        8.51372623       2.69117785       0.05950747
H        1.09838438       0.61261141       1.94127786
H        1.21511281      -2.10780048       0.03700084
H        1.04498076       0.89920729      -1.40423656
H        5.47215557      -0.93503648       1.86160696
H        2.75718594       4.45058870       2.03226829
H        5.63181829       6.05574083       2.11825061
H        5.24036169       3.30384588       3.99601483
H        9.30066490       1.76587343      -1.61524343
H        9.30278206       1.78586674       1.74720299
H        9.19739151       4.64577818      -0.00566918
19
Properties=species:S:1:pos:R:3 energy=-1845.4000244140625 pbc="F F F"
C        1.34070396      -0.21584451      -0.20161489
C        4.15983534      -0.60885084      -0.68929648
C        4.61697912      -1.46183550      -3.41025639
C        5.66742086       1.73769772      -0.02360268
C        5.29423761       4.09881592      -1.54726994
C        6.73502159       1.97497165       2.62276983
O        8.27735996       1.22070634       0.52653438
H        1.00828230       0.39744720       1.74750531
H        0.29320991      -1.97487724      -0.50499153
H        0.54008371       1.22074413      -1.45839620
H        4.78098822      -2.15950346       0.54255927
H        3.89226890      -0.08741873      -4.77739763
H        3.67427015      -3.26773334      -3.77625871
H        6.63870239      -1.71233749      -3.77657986
H        6.52246523       5.62964535      -0.88949406
H        3.34320903       4.76454782      -1.40079725
H        5.73112345       3.77554059      -3.54121447
H        6.27099943       0.54894656       4.01566792
H        7.05036020       3.83948898       3.40557003
18
Properties=species:S:1:pos:R:3 energy=-1717.3199462890625 pbc="F F F"
C        2.24627972      -0.19511423      -0.22593565
C        5.03874683       0.14783327      -0.29003516
N        6.49816370      -0.73500896      -2.45241094
C        6.35238981       2.03224921      -2.02648568
C        4.87632513       3.57454920      -3.90923858
C        8.75534725       3.28060246      -1.09492624
O       10.78030205       2.57274866      -2.71736956
H        1.36884201       1.34397328       0.84113598
H        1.77573788      -1.97414017       0.72004235
H        1.39112186      -0.24608013      -2.10831070
H        5.87376022      -0.20641479       1.55025578
H        5.34578943      -1.26435912      -3.91029692
H        3.35201502       2.50479412      -4.80961752
H        6.12133312       4.25592804      -5.41604948
H        4.03619051       5.21815729      -2.97463679
H        9.23673534       2.68822980       0.82819140
H        8.59120560       5.34253931      -1.10070872
H       10.51653385       0.76792800      -3.01364064
19
Properties=species:S:1:pos:R:3 energy=-1898.75 pbc="F F F"
C        1.61628282       0.20429829       0.33892238
C        4.47700691       0.07485205      -0.02108934
C        5.94502163       1.93789530       1.74644709
C        7.87601948      -0.18245305       2.24100733
C        5.81774855      -2.09251261       1.47564936
C        5.22418547       0.29383352      -2.75070429
C        4.81959534      -1.59485328      -4.38337088
H        1.10244727       0.12313455       2.34386516
H        0.66431433      -1.37643874      -0.59953451
H        0.84727758       1.96760178      -0.42736158
H        4.90654182       2.50129819       3.45045090
H        6.71894026       3.64860773       0.87874156
H        9.50193977      -0.14771989       0.95846909
H        8.56182003      -0.33467048       4.18326807
H        6.49599028      -3.72022820       0.39689919
H        4.72968197      -2.80679131       3.09053373
H        6.08937788       2.04133892      -3.39666939
H        3.94599390      -3.36297560      -3.81087852
H        5.35818624      -1.40771365      -6.35339165
19
Properties=species:S:1:pos:R:3 energy=-1807.3800048828125 pbc="F F F"
N        1.87906814       0.06672623       0.29846334
C        4.63844633       0.02258223       0.03554575
C        5.52773237      -2.51463962      -1.04520750
C        4.93220425      -2.77916360      -3.85904765
N        5.98755932      -0.68500680      -5.33673763
C        4.94783211       1.72601914      -4.44894457
C        5.54419184       2.19023037      -1.65895283
H        1.32838297       1.72760653       1.10537636
H        1.31704462      -1.33010268       1.50261569
H        5.44547272       0.26713169       1.92770958
H        4.68268490      -4.09169149       0.00162516
H        7.57908678      -2.67071223      -0.77182084
H        5.73968410      -4.55121660      -4.56166649
H        2.88746381      -2.90518928      -4.17141914
H        7.90251350      -0.66403085      -5.12603331
H        5.76782227       3.25276661      -5.58238316
H        2.90411234       1.78231406      -4.78495646
H        7.59592438       2.39815688      -1.43449116
H        4.70974541       3.98889065      -1.05552542
14
Properties=species:S:1:pos:R:3 energy=-1483.969970703125 pbc="F F F"
O        2.92282057       0.31862673       2.46688628
C        4.51362991       0.11013324       0.81407511
C        5.65923834      -2.34615159      -0.18086569
C        7.50087118      -1.55603826      -2.21657324
C        9.82007504      -0.01347375      -1.63680518
C        7.40115023       1.28238702      -2.34479117
N        5.61464071       2.08903551      -0.50535059
H        4.15254068      -3.51950145      -0.97018540
H        6.62379265      -3.33899498       1.35245812
H        7.40045118      -2.64442611      -3.93902063
H       10.46458530       0.10786556       0.30407584
H       11.33884811      -0.01644062      -3.01235580
H        7.24209213       2.16915989      -4.18413734
H        5.13706923       3.90128303      -0.14161608
17
Properties=species:S:1:pos:R:3 energy=-1623.2099609375 pbc="F F F"
C        1.62733769      -0.55285829      -0.05863820
C        4.49796391      -0.23889917       0.10128932
N        5.72091913      -2.15846419      -1.48579717
C        5.37458897       2.41894388      -0.72446430
C        4.43291950       4.49363661       0.97857577
C        2.99578285       6.42699623       0.20401484
H        0.66040260       0.74683869       1.22754717
H        1.06333005      -2.47193193       0.47522834
H        0.93259877      -0.19330008      -1.97487724
H        5.09167814      -0.56935561       2.06025505
H        5.15681696      -1.94044638      -3.31471181
H        5.12102556      -3.90927649      -0.95257312
H        4.79461336       2.77213383      -2.68456388
H        7.44737291       2.49099922      -0.70367730
H        5.00193501       4.39939594       2.95254588
H        2.39783573       6.61375809      -1.74956512
H        2.39016342       7.87862730       1.52221215
16
Properties=species:S:1:pos:R:3 energy=-1574.010009765625 pbc="F F F"
N        0.78291357      -0.26524195      -0.04297237
C        3.53303194      -0.02641837       0.06496879
C        4.54739904       2.62998867      -0.23753858
C        3.10761690       4.72478771      -0.34368449
O        7.15236759       2.66959715      -0.57020599
C        8.60016251       4.51071978       0.54435450
C       11.09184170       4.64904737       0.17003755
H        0.31891018      -2.11639881       0.20172827
H        0.20894702       0.18874584      -1.82405818
H        4.34559536      -1.22641337      -1.41606629
H        4.18719864      -0.77149957       1.88428378
H        1.07292986       4.63164330      -0.10847028
H        3.91288590       6.57736206      -0.67606843
H        7.59601879       5.80009842       1.77006865
H       12.04776001       3.30526328      -1.04343116
H       12.21173191       6.10404205       1.07784307
16
Properties=species:S:1:pos:R:3 energy=-1575.72998046875 pbc="F F F"
C        6.33553362      -2.13378429      -0.97341681
C        4.77518654       0.00236216       0.14603804
C        6.09121084       2.56101346      -0.02076809
C        6.51078701       3.48956823      -2.68719053
C        6.07146311       6.21066046      -2.23501682
N        4.95406818       6.76580524      -0.14499868
O        4.50890541       4.44947338       1.12317765
H        5.35113764      -3.93677187      -0.73226887
H        8.17278194      -2.27642083      -0.03539457
H        6.65605021      -1.85272527      -2.99619865
H        4.36214924      -0.41770506       2.13478589
H        2.92875433       0.08962971      -0.79531014
H        7.87405396       2.52308679       1.03604233
H        5.11237049       2.81414247      -4.05108166
H        8.41547966       3.12199759      -3.38939381
H        6.60039759       7.62650013      -3.65820742
17
Properties=species:S:1:pos:R:3 energy=-1666.2900390625 pbc="F F F"
C        9.71744442      -1.64557350      -0.13683507
C        7.20690536      -0.48584858      -0.91458964
C        6.67511749       1.89225841       0.53830737
C        6.86189795       4.21098995      -0.46528837
N        6.39836693       6.44980526       0.74931419
C        6.66307974       8.87455082      -0.09546896
N        7.49433279       9.69677067      -2.22352743
H       10.05356979      -3.39502525      -1.18844879
H        9.74624348      -2.09623551       1.88297987
H       11.28705120      -0.35390791      -0.53122091
H        5.67645407      -1.83651149      -0.56468797
H        7.22285461      -0.12020548      -2.95341516
H        6.11284828       1.65919840       2.49927616
H        7.44015408       4.42350864      -2.42346048
H        5.78439522       6.25535250       2.55640268
H        6.05594873      10.26389599       1.33648992
H        8.00363255       8.20925331      -3.34201837
15
Properties=species:S:1:pos:R:3 energy=-1455.760009765625 pbc="F F F"
C        1.74128819       2.00819302       0.83437079
N        4.04157639       1.21679461      -0.39544410
C        6.00135469       2.80900240      -0.91088581
N        5.93311644       5.21447229      -1.22476935
C        8.50467491       1.58602822      -1.14343548
C       10.29959297       1.59959650       1.06334889
O        8.86534786      -0.60905874       0.43510944
H        0.45430905       0.39988494       1.01039875
H        0.77529794       3.47437477      -0.25626576
H        2.14160776       2.72853780       2.73186374
H        4.62839270      -0.54301280       0.13027772
H        4.10675287       5.81822109      -1.07980835
H        9.29966354       1.53572369      -3.02777600
H        9.76563263       2.64727950       2.73842096
H       12.30574512       1.57965982       0.66843390
16
Properties=species:S:1:pos:R:3 energy=-1572.2099609375 pbc="F F F"
C       -3.16910863       1.45112073       0.82796460
C       -1.91330993      -0.72491783      -0.51056623
C       -0.45466810      -2.67020202       0.94975746
O        2.17360091      -2.63482618       0.32246286
C        3.21761775      -0.15359694      -0.00791795
C        1.46308267       2.04090428       0.72743118
N       -0.91634709       1.87627125      -0.70373404
H       -4.92056322       2.17131424       0.04452195
H       -3.02324057       1.61987329       2.86267042
H       -2.73462272      -1.46030474      -2.23324060
H       -0.63375747      -2.38647842       2.99404430
H       -1.17918909      -4.56274366       0.53575623
H        4.95499420      -0.06296568       1.11365342
H        3.77606964       0.01504222      -1.99611771
H        1.15390456       2.03587747       2.77825642
H        2.38574147       3.83674884       0.27079776
14
Properties=species:S:1:pos:R:3 energy=-1384.6600341796875 pbc="F F F"
C        5.12590122      -2.64482284       1.71095800
N        6.92490149      -0.89102477       0.57126421
N        6.57498074       1.57217658       1.16380680
C        8.08041191       3.08091497      -0.03870159
C        7.94586372       5.87959957       0.37443033
C       10.37777138       6.78502369       1.31426668
N       12.32607841       7.50655890       2.02548409
H        5.50465870      -4.56554031       1.04664373
H        3.18791127      -2.15670657       1.17777181
H        5.27929020      -2.62392259       3.77353740
H        8.71248817      -1.48642075       1.01376247
H        9.48285389       2.39074922      -1.42810380
H        6.42709064       6.32693529       1.70500541
H        7.50325203       6.76667452      -1.44099176
13
Properties=species:S:1:pos:R:3 energy=-1296.1099853515625 pbc="F F F"
N        1.84510970      -0.01585480       1.28610981
C        4.46816301      -0.05364932       0.37805861
C        5.18174267       1.41767251      -1.94698489
O        7.81201458       2.10668564      -2.26823831
N        9.17229557      -0.16739194      -2.82625556
C        7.65703821      -2.07743263      -2.69858551
C        5.06047869      -1.40202558      -2.05613542
H        1.50794482       1.59797132       2.28917646
H        1.53228438      -1.46576607       2.51885366
H        5.88377571      -0.13016434       1.86858010
H        3.75789046       2.50573897      -2.92979360
H        8.21526337      -4.04953194      -3.03822613
H        3.55172133      -2.24824500      -3.14091372
9
Properties=species:S:1:pos:R:3 energy=-1075.219970703125 pbc="F F F"
O        1.82222509      -0.01343595       0.00000000
C        4.36517286      -0.24282981       0.00000000
O        5.48799133      -2.25230789       0.00000000
C        5.68665838       2.13295269       0.00000000
C        6.79611635       4.11177969       0.00000000
C        8.21856976       6.63286304       0.00000000
C        9.34138870       8.60303497       0.00000000
H        1.29149556       1.75260758       0.00000000
H       10.34951973      10.34553242      -0.00000000
13
Properties=species:S:1:pos:R:3 energy=-1314.5 pbc="F F F"
C       10.26886654      -3.63456702      -0.00455424
C        8.73210335      -1.99241388      -0.00249444
C        6.86756706       0.00000000       0.00000000
C        8.36825562       2.39277124       0.20815334
C        9.31394958       3.73553514      -2.12197351
N        7.22650194       4.77118063      -0.64736348
H       11.64186573      -5.10804319      -0.00882502
H        5.59079266      -0.17113359       1.61906064
H        5.72042799      -0.04535343      -1.72267437
H        9.46115971       2.51431847       1.93781972
H        8.82481289       2.98259258      -3.96279359
H       11.10125256       4.72735786      -2.02181792
H        7.82507229       6.24803925       0.44446358
13
Properties=species:S:1:pos:R:3 energy=-1391.4599609375 pbc="F F F"
C        2.09398675      -0.11066236       0.07330248
C        4.93551111      -0.15357804       0.08643607
C        6.05778170      -2.73256278       0.26735845
O        4.72643185      -4.62824154       0.39911017
C        6.28929186       1.99071312      -0.05748547
C        9.07508850       2.27834821      -0.06338141
O       10.57339573       0.53165555       0.10797895
H        1.34622204       1.81476068      -0.05699414
H        1.34767711      -0.94985193       1.81149149
H        1.36009264      -1.17268848      -1.54405749
H        8.12359238      -2.89022279       0.27546537
H        5.31009245       3.79167891      -0.18923718
H        9.72621250       4.25307417      -0.23689607
12
Properties=species:S:1:pos:R:3 energy=-1236.4000244140625 pbc="F F F"
C        1.30289054      -0.43352208       0.30422702
C        4.10516548      -0.50262934      -0.11194737
C        5.61492443      -2.32220888       0.78820479
O        5.12015629       1.34994471      -1.73408830
C        5.03625250       3.76835966      -0.82938188
O        4.24991846       4.51298714       1.20796967
H        0.76923192       1.12860119       1.54657078
H        0.61735463      -2.18499589       1.16811526
H        0.31987393      -0.20231408      -1.50129294
H        4.88811684      -3.82822609       1.97495282
H        7.62098217      -2.33617401       0.36407465
H        5.83929157       5.02088881      -2.28532147
15
Properties=species:S:1:pos:R:3 energy=-1570.43994140625 pbc="F F F"
C        1.89310873       0.00274010      -0.07721421
C        4.76369715       0.21881139      -0.07354814
C        5.61405516       2.73904467       1.00903821
C        7.20180321       2.34964776       2.95307493
C        7.68065977      -0.34098217       3.45876575
O        8.65623093      -2.00756955       1.55044472
C        5.96955013      -1.74771321       1.64188850
H        1.30502594      -1.84019637      -0.81280899
H        1.03978395       1.46829832      -1.26320636
H        1.11217940       0.18647817       1.83205163
H        5.48589373       0.00789906      -2.00399780
H        5.04583311       4.56009817       0.28470615
H        8.10033035       3.83716440       4.02944422
H        7.74045038      -0.94087577       5.41287470
H        4.81815910      -3.30165386       2.27751684
12
Properties=species:S:1:pos:R:3 energy=-1288.6199951171875 pbc="F F F"
O        2.67035317      -0.23510084       0.80241549
C        4.95110130       0.16423610       0.78115606
N        6.05337858       2.50197840       0.72351944
C        4.74812603       4.91833353       0.35602441
C        7.07787466       5.80969858      -1.13572538
C        8.00038242       3.07156086      -0.85967422
O        9.79745483       1.85007966      -1.56144285
H        6.34861040      -1.38078511       0.67682433
H        4.40149355       5.92037964       2.12898445
H        3.00489140       4.76938534      -0.74477887
H        6.71134329       6.38838911      -3.08229446
H        8.28038311       7.18929291      -0.17878699
18
Properties=species:S:1:pos:R:3 energy=-1705.5999755859375 pbc="F F F"
C        3.28553462      -1.00280201       1.85724175
N        5.85987043      -0.66875517       0.93482864
C        6.17887545       1.83957279      -0.19711733
C        8.86219215       2.13663769      -1.24238157
C        9.25640774       4.71250439      -2.34229660
C       10.67054653       5.07051325      -4.78707314
O        7.96222878       5.15143108      -4.68075705
H        3.09633517      -2.88032055       2.70281863
H        1.90571320      -0.85510105       0.32223609
H        2.82682252       0.38850880       3.31756544
H        6.22626972      -2.01641345      -0.39448032
H        5.83037186       3.30666161       1.22476935
H        4.80984449       2.11462235      -1.72891045
H        9.22422600       0.67627627      -2.67005086
H       10.24790955       1.85121357       0.27344337
H        9.27394485       6.21239901      -0.95349914
H       11.52783966       3.44771075      -5.69246006
H       11.65276909       6.83814430      -5.09411573
16
Properties=species:S:1:pos:R:3 energy=-1496.030029296875 pbc="F F F"
C        1.82205498       0.29526970       0.66448438
N        4.51602983      -0.17444062       0.30517188
C        5.80304670       1.85784650      -0.05355484
N        8.36927605       1.98923910      -0.44710919
C        9.90328026      -0.26654586      -0.06906949
C        9.68036747       4.39157248      -0.22557661
H        0.91897380      -1.43866742       1.33836079
H        0.92313123       0.82607490      -1.12191153
H        1.47266352       1.76729083       2.07807517
H        4.89705515       3.73927665      -0.07957637
H        9.06586647      -1.90401244      -1.01929939
H       10.08180237      -0.68672645       1.94934702
H       11.80236053      -0.01793350      -0.85251212
H        8.58906937       5.91506958      -1.10431814
H       11.51873112       4.32943821      -1.17461598
H        9.98400879       4.86472178       1.76593018
12
Properties=species:S:1:pos:R:3 energy=-1398.5799560546875 pbc="F F F"
N        1.88972616       0.00000000       0.00000000
C        4.06481981       0.00000000       0.00000000
C        6.72177458       0.00000000       0.00000000
C        8.21477222      -2.05596542       0.00935414
C       10.93629837      -1.25884104       0.01203756
C       10.72147465       1.57070255       0.00257003
C        8.27766228       2.24559927      -0.00430858
H        7.58356524      -3.99752665       0.01615716
H       11.91638660      -1.94061649      -1.67535555
H       11.90941334      -1.92931592       1.70812345
H       12.31158447       2.85031176       0.00230547
H        7.55349970       4.15384483      -0.01120608
15
Properties=species:S:1:pos:R:3 energy=-1643.6400146484375 pbc="F F F"
C        1.85378349      -2.58401155       0.18086569
C       -0.95485973      -2.85713363       0.03016003
C       -2.80966377      -1.14409685      -0.06079249
C       -2.63297439       1.56422079       0.00294797
C       -0.57447672       3.02401543       0.00294797
C        2.03939247       2.29333377      -0.06164287
C        3.04232669      -0.02401842       0.02938524
H        2.65627456      -3.71701574      -1.36030042
H        2.48447967      -3.47341108       1.94424474
H       -1.55526352      -4.82825041      -0.01018562
H       -4.74188995      -1.85028756      -0.16818562
H       -4.45816612       2.51717186       0.05162732
H       -0.87029445       5.06212282       0.05124937
H        3.34589243       3.88350058      -0.16975410
H        5.10139132      -0.11088913      -0.01203756
17
Properties=species:S:1:pos:R:3 energy=-1575.030029296875 pbc="F F F"
C        1.79994524      -0.26446718       0.01668628
C        4.65847731      -0.00325033      -0.27501184
C        5.66267776      -1.73805666      -2.35185862
N        5.36308050       2.62216520      -0.80334145
O        4.38724470       3.58550978      -3.06810260
C        5.58884621       4.40192795       1.06733620
N        5.35300827       6.81250048       0.81927186
H        1.09479392       0.96472406       1.52525461
H        1.28737593      -2.21294498       0.49112093
H        0.80396509       0.24798876      -1.72516882
H        5.55105162      -0.58664656       1.50337160
H        4.81432295      -1.30625427      -4.18984413
H        5.25355196      -3.71886754      -1.91261077
H        7.71431541      -1.53668749      -2.54531002
H        5.91336870       4.04223776      -3.99956751
H        6.04982615       3.59333324       2.93247700
H        4.85748434       7.12628937      -1.02905035
14
Properties=species:S:1:pos:R:3 energy=-1433.699951171875 pbc="F F F"
C       -2.44968987       1.22605431       0.09397608
C       -1.93162131      -1.50758576      -0.28030309
N       -0.58082622      -3.01305485       1.59390843
C        0.84886497      -2.09058523      -0.58345294
C        2.15596962       0.49971917      -0.53851527
O        1.86875021       1.97901571       1.72019875
C        0.06493099       2.40543246      -0.25275087
H       -3.77068400       1.91191149      -1.34248030
H       -3.24239206       1.62200868       1.96283960
H       -3.30484748      -2.49290776      -1.42774475
H       -0.10892382      -1.95346665       3.14361620
H        1.40353739      -3.47363782      -1.98426914
H        3.71550393       0.89497429      -1.79416263
H        0.10023107       4.18067884      -1.25065851
13
Properties=species:S:1:pos:R:3 energy=-1368.06005859375 pbc="F F F"
C        1.79797995       0.11786222      -0.03896615
C        4.33100653      -0.06855927      -0.09779333
C        5.35495472      -2.69739509      -0.15293553
O        7.62975025      -3.13137078      -0.19025762
C        6.06745720       2.10592961      -0.07715752
C        7.19210863       2.97807622      -2.54842806
O        5.43619394       4.51247692      -1.17663801
H        0.90529221       1.96813083       0.00984547
H        0.54681116      -1.50639522      -0.04580696
H        3.94928193      -4.23687935      -0.15779214
H        7.29804659       2.15194464       1.56499565
H        6.54567099       2.14064407      -4.29986382
H        9.15615749       3.55351663      -2.55797100
17
Properties=species:S:1:pos:R:3 energy=-1573.9100341796875 pbc="F F F"
C        6.13639450      -2.15043283      -0.16680613
C        5.23244381       0.09218084       1.39563835
C        6.04196453       2.62813663       0.25059658
N        4.91805029       4.74980783       1.65487099
C        8.89556408       2.97605419       0.28678483
N       10.19836044       2.74263501       2.34926963
O       12.74635410       3.18352723       1.80106020
H        5.44513226      -3.91685414       0.65909868
H        8.20144939      -2.24750805      -0.22980960
H        5.43010902      -2.03377986      -2.10789490
H        5.94679785      -0.10656165       3.33120918
H        3.16421413       0.00736993       1.50703764
H        5.41561508       2.74647117      -1.71944296
H        5.73314571       4.80069828       3.40810227
H        3.04682446       4.41012955       1.95586658
H        9.79550838       3.47709608      -1.52686095
H       13.53956604       3.05553603       3.46048546
21
Properties=species:S:1:pos:R:3 energy=-1929.1099853515625 pbc="F F F"
C        3.70048070       0.68808711      -3.35498190
C        6.22247124       0.39472601      -2.00018072
N        7.42494202       2.86833978      -1.72790885
C        9.75839424       2.79173017      -0.19473627
C       11.82898617       1.14732838      -1.36666882
C       10.78659439       5.51497698       0.18058223
N        8.84335136       7.28791761       1.07635021
H        2.80312514      -1.15980053      -3.59301186
H        3.95519686       1.51873505      -5.23267078
H        2.40598035       1.89250398      -2.28048372
H        7.40886021      -0.87930846      -3.11772680
H        5.89757061      -0.47205359      -0.14654826
H        6.20298815       4.03551006      -0.79066139
H        9.29337120       2.03616095       1.68259323
H       12.23306656       1.71776104      -3.31505203
H       11.30071354      -0.85290897      -1.37383091
H       13.58679104       1.30419445      -0.28289199
H       11.55794334       6.24140644      -1.60212874
H       12.33815384       5.48149061       1.55452657
H        7.61935711       7.59016037      -0.38229159
H        9.67526531       8.99479389       1.39694226
14
Properties=species:S:1:pos:R:3 energy=-1396.989990234375 pbc="F F F"
C        1.87797201      -0.03467647       0.13526660
C        4.76210976       0.00000000       0.00000000
C        5.67127609      -1.42715895      -2.35894513
O        8.32862759      -1.88785529      -2.26302266
C        5.67299557       2.57223845       0.00000000
C        6.42374611       4.69232225       0.00000000
H        1.20067525       0.95115584       1.82664704
H        1.16717041      -1.97759843       0.21151705
H        1.02854013       0.89264995      -1.51162970
H        5.51047897      -0.96508312       1.67609262
H        5.25638676      -0.38935918      -4.10374832
H        4.75014782      -3.27627492      -2.48721981
H        9.15602589      -0.24883914      -2.13455915
H        7.08858967       6.59412384       0.00942973
12
Properties=species:S:1:pos:R:3 energy=-1221.6600341796875 pbc="F F F"
C        1.88972616       0.00000000       0.00000000
C        4.61849070       0.00000000       0.00000000
C        6.86756706       0.00000000       0.00000000
C        9.58168602      -0.03490324      -0.05011554
N       10.79583549      -2.26364613      -0.27979285
N       10.64250278       2.12949467       0.16476522
H        1.14511740       1.92916477       0.02209090
H        1.14507949      -0.98369694       1.65965199
H        1.14507949      -0.94544888      -1.68172395
H        9.88623428      -3.80292273       0.39349768
H       12.64132309      -2.15239811       0.21637364
H        9.31323147       3.53272963       0.30080661
17
Properties=species:S:1:pos:R:3 energy=-1614.449951171875 pbc="F F F"
C        4.25025845      -1.47251236      -2.54837132
N        3.42613006       0.64651310      -0.99189836
C        5.54298258       2.12340975       0.08101256
C        6.97361851       0.86734653       2.20907092
C        6.97749233       3.90007353      -1.63260996
C        5.17231274       4.95132828       0.28275973
H        5.39720917      -0.83998328      -4.14887476
H        2.59344125      -2.45482993      -3.30191851
H        5.33101177      -2.84728813      -1.44588614
H        2.27368069       1.77441502      -2.04627109
H        8.35884476       2.14499044       3.06836724
H        8.00312233      -0.79117167       1.52325153
H        5.66881943       0.25979954       3.69694686
H        6.44734859       4.01277685      -3.60760069
H        8.98343658       4.16325569      -1.30629206
H        5.95450830       5.93152905       1.90380454
H        3.42072558       5.77139378      -0.39172134
16
Properties=species:S:1:pos:R:3 energy=-1557.4300537109375 pbc="F F F"
C        1.91648471      -0.04476761      -0.11977084
N        4.66511011       0.02057912      -0.08016218
C        5.59491205       2.61855578       0.00000000
C        8.32367706       2.61855578       0.00000000
C       10.57275295       2.61855578       0.00000000
C       13.30151749       2.61855578       0.00000000
O       14.22321320       5.11138773      -0.38813084
H        1.27507377      -2.01051736      -0.16540773
H        1.15649354       0.91039449      -1.79036438
H        1.12119341       0.82809687       1.57918739
H        5.35160971      -0.83440858      -1.66227865
H        4.90091038       3.56559205       1.70649827
H        4.89590263       3.68205571      -1.63489652
H       14.05612278       1.41379857      -1.50148189
H       14.05393124       1.93532526       1.79975629
H       13.32226658       5.78335571      -1.84070659
18
Properties=species:S:1:pos:R:3 energy=-1717.1700439453125 pbc="F F F"
N        1.44261694       0.47108984      -0.44102427
C        4.08702421       0.39217487      -1.24844754
C        5.86950827       0.86330247       0.97857577
C        8.59608078       0.77185863       0.17691617
O        9.34235287       2.78196025      -1.48354840
C       10.57938576      -0.18016648       1.98432577
C        9.87412167      -1.72407269      -0.29203826
H        0.31392130       0.20174716      -1.97935581
H        1.03575885       2.23754907       0.21246190
H        4.38955021       1.80642700      -2.73059750
H        4.47301960      -1.46251571      -2.08434892
H        5.51029015      -0.54325849       2.45978093
H        5.48407984       2.72046852       1.81528986
H       10.91917801       3.56343770      -0.95374477
H        9.98075867      -0.86679846       3.82062936
H       12.42404270       0.70664418       2.00031281
H       11.21195316      -1.83881688      -1.83896804
H        8.79852676      -3.44153142       0.00619830
17
Properties=species:S:1:pos:R:3 energy=-1623.3800048828125 pbc="F F F"
C        5.29064751      -2.51635933      -0.74579930
C        4.26114368      -0.14291999       0.50947016
C        6.17796850       1.98746276       0.56223130
N        8.39342690       1.61972201       2.20000029
C        6.56196070       3.50954270      -1.81986296
C        5.18419886       4.65709782       0.37590432
H        3.83219457      -3.98254108      -0.80961537
H        6.91104984      -3.27689838       0.29132017
H        5.90212488      -2.12953234      -2.68469620
H        3.67374110      -0.58464348       2.44625044
H        2.55198073       0.44752494      -0.50533170
H        7.84740925       1.20570195       4.00007772
H        9.45174885       0.12876594       1.59585488
H        5.47336483       3.02590513      -3.48516512
H        8.44259739       4.20996952      -2.23607516
H        6.13924789       6.13057375       1.43407536
H        3.16578269       4.95249987       0.19392370
10
Properties=species:S:1:pos:R:3 energy=-1050.6099853515625 pbc="F F F"
C        3.85543823       0.10289559       0.99703842
O        2.86869884       1.10492289      -1.36697114
C        4.74400616       2.81913114      -1.43246913
C        4.80459070       5.37725353      -1.54477549
O        6.04903221       6.18242788       0.59698337
N        6.46528244       4.09564114       2.21797156
C        5.78345013       2.10987926       0.83525896
H        4.55382442      -1.82812107       0.75742114
H        2.54292893       0.21321779       2.58881140
H        3.93042254       6.84145117      -2.66018629
16
Properties=species:S:1:pos:R:3 energy=-1602.6600341796875 pbc="F F F"
C        5.30483913      -1.69563234      -1.95505393
C        4.66834164       0.01237771       0.27637243
C        5.72093821       2.70763731       0.00000000
C        4.76033354       4.36933041       2.17955351
O        5.28868198       6.97165346       1.73730087
C        8.44970226       2.70763731       0.00000000
N       10.62479591       2.70763731       0.00000000
H        4.39213943      -3.53788853      -1.71870589
H        7.34022522      -2.01943684      -2.10623217
H        4.63717985      -0.87386608      -3.73037601
H        5.37521267      -0.86751658       2.01917243
H        2.60243630       0.09845473       0.44709030
H        5.05085993       3.52095652      -1.78616917
H        5.58024788       3.82671428       4.00257206
H        2.70417929       4.20516968       2.34343052
H        7.07573938       7.26546764       2.08141994
15
Properties=species:S:1:pos:R:3 energy=-1419.6500244140625 pbc="F F F"
C        6.58384371      -2.27020359      -0.35237724
O        4.83433533      -0.22820333      -0.29132017
C        5.81088877       2.14850521      -0.03405286
C        8.23752403       2.87922454       0.05890276
C        9.04218864       5.56390190       0.37339097
N       10.71933937       5.75740957       2.54699183
H        5.50896740      -4.02373695      -0.55848968
H        7.64938450      -2.37850380       1.41805053
H        7.86024046      -2.11027598      -1.97419691
H        4.25740194       3.48289752       0.09924842
H        9.76032257       1.51608944      -0.11181509
H        7.42367554       6.82756186       0.63077170
H       10.05479813       6.17571926      -1.32326186
H        9.73530197       5.27280855       4.13239622
H       11.22722244       7.59996843       2.78377438
20
Properties=species:S:1:pos:R:3 energy=-1921.18994140625 pbc="F F F"
C        1.75073683      -0.24950054       0.31269297
C        4.59313059      -0.10459634       0.10117593
C        5.80353785      -2.68885350       0.08454635
C        5.90552664       2.09154892      -0.06202081
C        4.66482687       4.66350412      -0.22478293
C        8.75978756       2.24646854      -0.04796125
N        9.71512032       2.70720267      -2.58760190
H        0.87955415       1.51325488       0.94459850
H        1.21220267      -1.68159175       1.71039116
H        0.92505872      -0.78126949      -1.50888968
H        4.74523449      -3.96169734      -1.16082096
H        5.79527998      -3.49244070       1.99110997
H        7.74468374      -2.68713379      -0.61903650
H        2.67796874       4.58305836      -0.77839708
H        5.59967422       5.83857346      -1.65029788
H        4.80054712       5.63215876       1.59884059
H        9.63866138       0.54596078       0.73172086
H        9.35765934       3.79285049       1.19532740
H        9.15600681       1.25226486      -3.71896219
H       11.63778400       2.65211725      -2.55207515
15
Properties=species:S:1:pos:R:3 energy=-1462.949951171875 pbc="F F F"
S        2.73422575       0.11661500       2.27084613
C        5.23631763       0.02980098       0.38578758
N        6.26177740      -2.19812942      -0.36942255
C        8.23845005      -2.39981985      -2.24643087
C        9.97951126      -0.12326684      -2.15716028
C        8.35670948       2.23599958      -2.30423760
N        6.37098503       2.18161321      -0.42685133
H        5.32392550      -3.77510595       0.17685947
H        9.28259945      -4.14704180      -1.88566327
H        7.32049656      -2.56154275      -4.09560347
H       11.04042244      -0.12808564      -0.37701926
H       11.34650135      -0.17742638      -3.70783162
H        9.48908997       3.93633723      -1.98372114
H        7.44998074       2.40053797      -4.15873909
H        5.51405096       3.81766248       0.07764885
17
Properties=species:S:1:pos:R:3 energy=-1644.469970703125 pbc="F F F"
C        1.71940517      -0.40846431      -0.30624902
C        4.52685785      -0.29046980      -0.29332328
O        5.68915272      -0.62570721      -2.71803093
C        5.89354563       1.83783424      -1.60022008
C        8.52398777       2.57116127      -0.86449301
C        8.54033375       4.20541525       1.50896525
O        7.34551668       6.57105017       1.05049872
H        0.95319676       0.78361273       1.19619668
H        1.08738625      -2.35131073       0.02379165
H        0.92460519       0.22846790      -2.10615635
H        5.37632751      -1.18897784       1.33382535
H        4.81305695       3.36985421      -2.41565585
H        9.37334442       3.61181474      -2.44180965
H        9.68274879       0.88431627      -0.53367758
H       10.48085594       4.57396889       2.12023497
H        7.54136801       3.27393174       3.06311369
H        8.32961082       7.45177603      -0.22559550
17
Properties=species:S:1:pos:R:3 energy=-1665.489990234375 pbc="F F F"
N        1.98043299       0.28742734       1.03483295
C        4.28792095      -0.01674297      -0.04187633
N        4.97952271      -2.07699800      -1.12977278
C        6.12131405       2.27188540       0.08526444
C        5.09914255       4.96894026      -0.46377659
C        6.96934795       5.95176792       1.53982449
C        6.91110659       3.29082584       2.72154570
H        1.77197731       1.69761658       2.31444216
H        1.01363015      -1.29903555       1.48613727
H        3.53289962      -3.35413170      -1.09020185
H        7.80729008       1.89533865      -1.07918477
H        3.11466551       5.28017807       0.03639613
H        5.41525602       5.66670275      -2.38300133
H        8.81761360       6.47815132       0.76607609
H        6.27921963       7.48416567       2.74015951
H        8.72305107       2.60254979       3.43642926
H        5.48366404       3.07169318       4.20528316
17
Properties=species:S:1:pos:R:3 energy=-1705.31005859375 pbc="F F F"
C        1.10216391       1.81321108       1.93502283
C        3.77941442       2.59740973       1.53101838
C        4.47254705       4.64048719       0.21340677
O        6.96430206       5.29656219      -0.06515776
C        7.68249273       7.21008015      -1.71745872
C        6.28575802       7.51152897      -4.16782856
C        9.74063110       8.57349873      -1.16036749
H        0.66503245       1.81236076       3.95627403
H        0.81105155      -0.09972085       1.20579648
H       -0.23311661       3.07505679       0.98483080
H        5.23395538       1.41754031       2.37508345
H        3.13053918       5.91603327      -0.64326280
H        5.99302053       5.67259884      -5.06945515
H        7.33935595       8.69001865      -5.50505590
H        4.44894457       8.41209698      -3.86688995
H       10.76448441       8.24712372       0.58700562
H       10.44633007      10.03051472      -2.41584468
11
Properties=species:S:1:pos:R:3 energy=-1153.75 pbc="F F F"
C        1.92270184       0.06731205      -0.20000862
C        4.18789768       0.01736658      -0.08840139
C        6.89209557      -0.05147614       0.05610597
C        8.33255863      -1.42167878      -1.97977161
C        8.40612507       1.41130412      -1.85913146
H       -0.08794785       0.10818682      -0.29761297
H        7.66574955      -0.15017654       1.95490277
H        7.28933525      -2.28774023      -3.51634574
H       10.01278973      -2.45399833      -1.42704558
H       10.13824844       2.30219674      -1.22607327
H        7.41258287       2.45887375      -3.31335139
15
Properties=species:S:1:pos:R:3 energy=-1444.0799560546875 pbc="F F F"
C        1.87069654       0.02651286       0.59592515
C        4.59980106       0.12328573      -0.30944267
C        5.45151997      -2.43406177      -1.37776148
N        7.87819290      -2.29284263      -2.74114227
C        8.51463318      -0.03966535      -3.39619684
N        7.32508850       2.21475911      -2.89999270
O        4.75710201       1.96894348      -2.29822826
H        1.29244041       1.87245405       1.32930899
H        1.62202752      -1.38583064       2.08408451
H        0.58670330      -0.41702476      -0.96657604
H        5.81691742       0.71049923       1.26630545
H        4.03825045      -3.16922188      -2.70174146
H        5.62981558      -3.80587053       0.16508648
H       10.28632736       0.24220620      -4.45790195
H        7.67708778       3.64998722      -4.12791777
17
Properties=species:S:1:pos:R:3 energy=-1723.93994140625 pbc="F F F"
C        2.24576950      -1.68045783       0.28992179
C        4.78886843      -0.49618539      -0.38391677
C        6.05863190      -1.93267965      -2.53408504
C        4.45826101       2.26729345      -1.13330650
O        2.53389597       3.06112957      -2.16430330
C        6.63747406       3.98393965      -0.60673440
C        6.53374720       6.43926048      -1.20538068
H        1.31303847      -0.60798156       1.79529655
H        2.49458957      -3.62596869       0.94943619
H        0.96672720      -1.71532333      -1.33768046
H        5.98927927      -0.57920104       1.30364645
H        4.92908621      -1.84325778      -4.26709604
H        6.32249451      -3.92350602      -2.03716254
H        7.91757441      -1.13177586      -2.96496129
H        8.29765511       3.17226434       0.27274418
H        4.87063694       7.25934505      -2.08998036
H        8.11476707       7.68604517      -0.82318360
14
Properties=species:S:1:pos:R:3 energy=-1427.510009765625 pbc="F F F"
C        1.94216609      -0.11682287       0.10571128
C        4.78682756      -0.21879250      -0.08968640
N        5.87175703      -2.61445498      -0.24420930
C        6.13388109       1.93838656      -0.07583471
C        8.91812801       2.13395429      -0.09562014
O       10.11557198      -0.03329698       0.50255376
O       10.00496578       4.11614466      -0.54717022
H        1.23007941       1.82273531       0.22334673
H        1.30478036      -1.12699485       1.79576898
H        1.08154690      -1.00495636      -1.55358160
H        4.52547836      -3.99890614      -0.09947518
H        6.69749165      -2.85250378      -1.98734939
H        5.20715904       3.76811385      -0.01683746
H        8.87139511      -1.37500250       0.86836696
18
Properties=species:S:1:pos:R:3 energy=-1769.3499755859375 pbc="F F F"
C        1.89575434       0.08813683       0.00941084
C        4.76912069       0.01751776       0.15251979
C        5.82464600      -2.13610864       1.76606250
C        7.43178272      -0.57338071       3.55355430
C        8.62869740       1.47347617       1.83970511
N        5.86145782       2.26665092       1.45888746
C        5.66910267       1.63238323       4.28196812
H        1.18805194      -1.58973205      -0.97628921
H        1.25734818       1.75551784      -1.03700614
H        1.00629807       0.13175170       1.87663031
H        5.51635647      -0.08620930      -1.77906382
H        6.98013830      -3.44107795       0.65087837
H        4.36931133      -3.20327473       2.77903128
H        8.57077694      -1.48148859       5.00376797
H        9.61806393       0.82416624       0.14040665
H        9.81327248       2.89470148       2.77878571
H        6.46554661       3.07564259       5.54351139
H        3.78485680       1.14702594       4.98575878
15
Properties=species:S:1:pos:R:3 energy=-1480.8900146484375 pbc="F F F"
C        2.32742453       0.03324028      -1.99371779
N        4.76267672       0.04633608      -0.69677985
N        6.00861120       2.29136848      -0.74553478
C        8.30942822       2.12478924       0.03057577
C        9.60513783       4.50869751       0.00000000
C       10.72967625       6.45645714       0.00000000
C       12.09405804       8.81963539       0.00000000
H        1.50138736      -1.85950947      -1.90705490
H        2.55753636       0.53743809      -3.98607492
H        1.01194835       1.36249256      -1.11159360
H        4.47328424      -0.53702235       1.12478387
H        9.29189682       0.40515730       0.67368734
H       10.80895042      10.42140484      -0.24388805
H       13.47796154       8.88052273      -1.53545916
H       13.11216736       9.09173679       1.77932835
15
Properties=species:S:1:pos:R:3 energy=-1500.31005859375 pbc="F F F"
C       -2.47726083       1.24563193       0.06580026
C       -1.93746066      -1.48383188      -0.28423372
N       -0.62340176      -2.98091078       1.61410964
C        0.85513890      -2.04377651      -0.52235812
C        2.15224695       0.55750698      -0.54212463
N        2.02195024       2.32961655       1.57162857
C        0.02430188       2.45182514      -0.31654802
H       -3.82019472       1.90284085      -1.36479795
H       -3.26421833       1.65267885       1.93551421
H       -3.26644826      -2.47179961      -1.48145080
H       -0.24568330      -1.97419691       3.20841479
H        1.44218230      -3.43916917      -1.90155578
H        3.61183357       0.91028106      -1.93409693
H        1.45544815       1.44380748       3.18171310
H        0.00557469       4.09154034      -1.53547812
11
Properties=species:S:1:pos:R:3 energy=-1192.3199462890625 pbc="F F F"
N        1.89172924       0.23058438      -0.50979143
C        4.28083420      -0.06494989      -0.25624686
N        5.73681164       2.02663684      -0.07698745
C        8.30971146       1.96306646       0.19872360
O        9.60566711       0.05177850       0.31726611
C        9.50972557       4.41379547       0.35417247
C       10.50608349       6.45109034       0.48324075
H        1.03717613      -1.51004231      -0.62060493
H        5.24296951      -1.90954936      -0.17296663
H        4.82031345       3.69660664      -0.15731969
H       11.41103554       8.24582005       0.59983689
19
Properties=species:S:1:pos:R:3 energy=-1851.8499755859375 pbc="F F F"
C        4.56229019      -1.66492426      -2.85845637
C        5.84679365      -0.79109603      -0.44068414
C        5.74302912       2.03432798      -0.17449731
C        7.80489016       3.51029849      -0.05117378
C        7.90444088       6.33647871       0.21593900
C        5.38277149       7.72601318       0.29135796
O        9.23658466       6.86664104       2.49466515
H        4.65859079      -3.72578406      -3.01350856
H        5.47820282      -0.85385388      -4.52808619
H        2.56651258      -1.11646914      -2.88769054
H        7.80396414      -1.46920538      -0.42692694
H        4.89915276      -1.64717984       1.18971491
H        3.86267591       2.85632110      -0.06477981
H        9.65967560       2.62156034      -0.16393374
H        9.03113365       7.09888840      -1.34480476
H        4.23948717       7.13114595       1.91238391
H        4.29597092       7.42617035      -1.44256020
H        5.69780779       9.76013279       0.51767159
H        8.34820557       5.98952484       3.84381628
16
Properties=species:S:1:pos:R:3 energy=-1572.0999755859375 pbc="F F F"
N        1.76198065      -0.05077694      -0.70671976
C        4.47179127      -0.13203517      -0.05931850
C        6.20638990      -1.68353808      -1.70509994
O        4.99458408      -2.85987377      -3.84270144
C        6.35286236       1.16186035      -1.77139151
C        8.52791786       2.44383168      -0.62502694
C       10.91900730       2.31151295      -1.44376969
H        0.99633920       1.61783230      -0.11345915
H        0.81738216      -1.42749918       0.26174596
H        4.87401962      -0.15027103       1.95656574
H        7.72079754      -2.71924043      -0.79170078
H        3.25339031      -2.24510813      -3.93176413
H        5.62841702       2.09196472      -3.45058322
H        8.13392925       3.63235593       1.00866020
H       11.41868877       1.17631674      -3.07857180
H       12.41907215       3.33988309      -0.49811292
15
Properties=species:S:1:pos:R:3 energy=-1477.1600341796875 pbc="F F F"
C        1.76035547       0.01885947       0.28823993
C        4.60671759      -0.17759646       0.10096807
N        5.87411928       1.70517552       1.72811675
C        7.62392998       0.01243440       2.58467293
O        9.70268536       0.38896233       3.44735169
C        5.92425346      -2.25244021       1.73386157
N        7.12566614      -4.12992096       0.06292788
H        0.86468196      -1.53404188      -0.74549699
H        1.09161925       1.79274535      -0.54263484
H        1.10286307      -0.05928071       2.24924660
H        5.27706003      -0.00729434      -1.85637248
H        6.52286196       3.43555999       1.23930132
H        4.80149174      -3.06473899       3.26916957
H        8.42598629      -3.39774656      -1.15534079
H        5.89477396      -5.18225288      -0.97360581
13
Properties=species:S:1:pos:R:3 energy=-1297.6400146484375 pbc="F F F"
N        2.31381845      -0.31212607      -1.29206240
C        4.35094309       0.25310993      -0.06659395
N        5.44961119       2.57427931       0.18196173
O        7.67797613       2.67908359       1.62748885
C        8.37913990       5.33934546       1.54504013
C        6.41261578       6.63008547      -0.01351154
C        4.76464224       4.87604141      -0.73967659
H        1.97903454      -2.21311498      -1.12368786
H        5.40367174      -1.24614215       0.93301451
H       10.25465584       5.49636316       0.69084609
H        8.41901302       6.06660652       3.47928810
H        6.35074615       8.61484528      -0.46012941
H        3.08410859       5.06123447      -1.88384914
17
Properties=species:S:1:pos:R:3 energy=-1759.050048828125 pbc="F F F"
C        1.91036189      -0.43405119      -0.00086927
C        4.71191883      -0.08227868      -0.00164406
C        5.93188810       2.15048933       0.00000000
C        4.61815071       4.67221546       0.00485660
C        8.58884335       2.15048933       0.00000000
C       10.83791924       2.15048933       0.00000000
C       13.56668377       2.15048933       0.00000000
H        1.45616627      -2.45205188      -0.02218539
H        1.05456161       0.41515392      -1.68042004
H        1.06179929       0.37875780       1.70064008
H        5.81536770      -1.82316995      -0.00313695
H        2.55664825       4.51514149      -0.00052912
H        5.15957594       5.76598930      -1.66813684
H        5.15171480       5.75495291       1.68743098
H       14.31125546       4.07965422      -0.02207200
H       14.31127357       1.16677356      -1.65965199
H       14.31127357       1.20502162       1.68174291
17
Properties=species:S:1:pos:R:3 energy=-1635.5699462890625 pbc="F F F"
N        1.18878889       2.10337853      -1.74850690
N        3.69331861       1.82948172      -2.15810513
C        5.04199743       2.33889508      -0.18009090
C        7.87484789       2.13157320      -0.26905921
C        9.04523087       4.73484135       0.10659945
C       11.88070774       4.61206579       0.02819471
C       13.38604546       5.23905802       1.96314204
H        0.26871905       2.09084964      -3.45041323
H        0.48310849       0.56087071      -0.81781679
H        4.19426584       2.95092082       1.63028562
H        8.45289612       1.30933452      -2.07954907
H        8.45707226       0.84421623       1.24519730
H        8.39552402       5.54833031       1.89881575
H        8.39792442       6.02346420      -1.38390315
H       12.73543167       3.98720884      -1.73665833
H       12.63202572       5.88715839       3.75688887
H       15.42691135       5.11940050       1.78286207
12
Properties=species:S:1:pos:R:3 energy=-1118.530029296875 pbc="F F F"
N        2.05605984       0.32847220       0.35073316
C        4.68504667      -0.11111590      -0.35101664
C        6.09115410       2.32557249      -0.18906710
C        7.23681974       3.20588255       2.26067948
O        8.74270439       2.06979823       0.31127569
H        1.11023295      -1.34916997       0.29528859
H        1.21911907       1.44719005      -0.97513646
H        4.78433323      -0.85869157      -2.27736568
H        5.49847937      -1.52948761       0.91853917
H        5.51510906       3.71142220      -1.57591820
H        6.88240147       2.11424446       3.95502663
H        7.43932247       5.21938562       2.56454730
14
Properties=species:S:1:pos:R:3 energy=-1297.1600341796875 pbc="F F F"
O        1.69892049       0.00071810       0.51145440
S        4.32749176       0.09537448      -0.24691162
O        5.08393002       0.41694918      -2.86051631
C        5.92929935       2.38079047       1.60409403
C        8.43235493       1.10437489       2.25090957
N        7.90102053      -1.52240121       3.01088166
C        6.06654978      -2.49935174       1.12421703
H        4.80527115       2.74390125       3.30027437
H        6.17469883       4.11571026       0.51580077
H        9.68397713       1.10150242       0.59806055
H        9.40180302       2.11171222       3.77442551
H        9.51204967      -2.57972193       2.96853304
H        7.05846739      -3.45861459      -0.41564527
H        4.73349953      -3.79179215       2.02591872
13
Properties=species:S:1:pos:R:3 energy=-1421.5899658203125 pbc="F F F"
C        2.01461816       0.68149191      -0.56801391
C        4.47489023       0.55720466       0.05117378
C        6.13097095      -1.74763763       0.27625906
C        4.81458759      -4.14188290      -0.25694606
C        3.77361298      -6.11419010      -0.68479896
C        5.76432610       2.99865532       0.59212679
O        8.00206375       3.12118506       1.17246163
H        0.98913938       2.45541573      -0.67754239
H        0.92793113      -1.00775313      -0.99238968
H        6.91452694      -1.83662486       2.19342399
H        7.72952795      -1.56556249      -1.03086448
H        2.85601878      -7.86730766      -1.06289542
H        4.58610058       4.71193743       0.44130775
14
Properties=species:S:1:pos:R:3 energy=-1409.3299560546875 pbc="F F F"
C        1.27923119      -1.49050260      -0.13859251
C        4.07748079      -1.76224518       0.19415046
C        5.14638567      -3.89944983       1.04917598
O        5.40370989       0.43979597      -0.30738285
C        7.70556641       0.34634900      -1.49800479
C        9.15298271       2.39415073      -1.75874925
H        0.56034160       0.02770339       1.06920707
H        0.26303098      -3.22555470       0.34867337
H        0.83739436      -1.02555442      -2.10528708
H        4.01659393      -5.55639935       1.47566819
H        7.16302586      -4.03724861       1.38815498
H        8.23113728      -1.48118627      -2.24471116
H        8.55276775       4.20607662      -1.01100349
H       10.95710468       2.29357958      -2.72292519
16
Properties=species:S:1:pos:R:3 energy=-1511.0899658203125 pbc="F F F"
C        1.94651246      -0.28088889      -0.25520751
C        4.78181982       0.08027557       0.06782227
O        6.11071301      -1.40102410      -1.73195291
C        5.46085501       2.89472032      -0.07092142
C        5.52457666       4.15607452      -2.63354135
N        5.91920805       4.08301783       2.03536725
O        6.50642157       6.62494516       1.60505784
H        0.88569576       0.80449420       1.15006840
H        1.44722784      -2.28048372      -0.07048678
H        1.32184458       0.31994954      -2.13520145
H        5.33397865      -0.61518145       1.93916142
H        5.32018375      -1.18415904      -3.37438941
H        4.79570913       2.90195799      -4.10121584
H        7.47458506       4.65928984      -3.09576821
H        4.35714149       5.86106110      -2.61025977
H        6.86992931       7.24020243       3.30473423
13
Properties=species:S:1:pos:R:3 energy=-1396.760009765625 pbc="F F F"
O        1.67777443      -0.15764095       0.16971630
C        3.99013782      -0.07432293      -0.00695419
C        5.49555016       2.37612271       0.03938189
O        7.88473129       2.15341854      -1.17467260
C        9.39390373       0.17750198      -0.13556895
C        7.99053669      -2.28071046      -0.11090802
C        5.46484232      -2.45176840      -0.11179620
H        4.42056084       3.81941986      -0.97817892
H        5.75317669       2.98644757       2.00004840
H       10.01887417       0.68980676       1.77033329
H       11.07186794       0.00230547      -1.33199239
H        9.11671925      -3.99695969      -0.09340917
H        4.43768167      -4.21919155      -0.10100586
16
Properties=species:S:1:pos:R:3 energy=-1579.6800537109375 pbc="F F F"
C        1.79673266      -1.69844806      -2.35877514
C        3.43361354      -1.09549308      -0.52780050
C        4.66518593       1.43605959      -0.24628800
N        7.40436268       1.11741400      -0.34684032
C        8.67017651       3.57838535      -0.19930941
C       11.49686718       3.15414190      -0.27658030
O       12.83003139       3.72757936      -2.08877110
H        0.97069561      -3.57640123      -2.44689298
H        1.24585867      -0.35311422      -3.80687213
H        3.91946197      -2.51291990       0.88278556
H        4.10677195       2.23685002       1.58083153
H        4.02281141       2.72889686      -1.73297334
H        7.84748459       0.30804425      -2.04566622
H        8.23075867       4.55225563       1.57280016
H        8.14039230       4.79548264      -1.78754866
H       12.31604481       2.24491906       1.41257024
15
Properties=species:S:1:pos:R:3 energy=-1492.6099853515625 pbc="F F F"
C        2.03317523      -0.14639708       0.25862792
C        4.88446951       0.00470542       0.00990217
C        6.03193045       2.26355171       1.39732015
N        8.36612034       1.17450261       2.25425434
C        8.10369396      -1.35890210       2.43954206
N        9.46554375      -2.90449023       3.69082403
O        6.02544832      -2.18000698       1.17922688
H        1.31804621      -1.83654928      -0.69855618
H        1.12138236       1.51684535      -0.56385648
H        1.46436763      -0.30796868       2.24274588
H        5.43124294      -0.00003779      -1.98888004
H        4.88756895       2.84316850       3.02206898
H        6.31778908       3.88939643       0.15522210
H        9.33023930       1.98349440       3.69403672
H        8.68457699      -4.65783501       3.42059326
17
Properties=species:S:1:pos:R:3 energy=-1706.7900390625 pbc="F F F"
C        1.86842895       0.01133836       0.01867049
C        4.73650408      -0.07914173      -0.01904844
C        5.85798073      -2.19824290       1.61632061
C        7.33364916      -0.54373091       3.45181155
C        8.70974731       1.47646189       1.82592893
C        5.88345432       2.15591288       1.40272486
O        5.56633949       1.55358160       4.15707636
H        1.07674706      -1.66605818      -0.89559793
H        1.18480158       1.68359482      -0.98868579
H        1.12397134       0.10276331       1.94685256
H        5.42702913      -0.17916493      -1.96881115
H        7.09977674      -3.44177699       0.52636433
H        4.42452908      -3.33580136       2.57681155
H        8.33690453      -1.35682333       5.05558443
H        9.77260494       0.80207539       0.19010645
H        9.81956482       2.86883092       2.87580419
H        5.41943216       4.10250092       0.91591245
12
Properties=species:S:1:pos:R:3 energy=-1204.5400390625 pbc="F F F"
O        1.89135134      -0.00563138      -0.01848152
C        4.57313728       0.00000000       0.00000000
C        5.48402309       2.57223845       0.00000000
C        6.23477364       4.69232225       0.00000000
C        7.59303284       7.03709459      -0.00054802
N        6.17891312       9.01051617       0.00124722
O        7.74702692      11.14825058       0.00043464
H        1.36428773      -1.76281214      -0.01388949
H        5.23843431      -1.02213395      -1.67002654
H        5.21526623      -1.01363015       1.68423736
H        9.67524624       7.02318621      -0.00234326
H        6.52728415      12.53081226       0.00126612
11
Properties=species:S:1:pos:R:3 energy=-1107.22998046875 pbc="F F F"
O        1.69616151       1.08559096      -1.36135876
N        4.29035854       0.88104701      -1.83373356
C        5.51102734       2.00220275      -0.03286234
C        8.35052967       2.07975698       0.00000000
C        9.26139641       4.65199566       0.00000000
C       10.01216602       6.77207947       0.00000000
H        0.95880926       0.23787872      -2.82351542
H        4.51616192       2.91288066       1.56168854
H        9.08523655       1.03492737      -1.62799907
H        8.97185230       1.09815764       1.71277213
H       10.68511581       8.67087650      -0.00848487
20
Properties=species:S:1:pos:R:3 energy=-1917.030029296875 pbc="F F F"
C        2.23388314       0.33780745       0.36445257
C        5.03933287      -0.05877048      -0.19424495
C        5.38022041      -1.43747687      -2.70913029
C        6.40452766       2.44213080      -0.24473843
C        7.30628586       3.62848210       2.18363523
C        9.18699837       2.55870819       0.34767181
N       10.80603981       4.27032757      -1.08268082
H        1.97414017       1.28652561       2.18594074
H        1.23242271      -1.47156751       0.43864322
H        1.33573401       1.51333046      -1.08460832
H        5.82780218      -1.25574195       1.30453467
H        4.61391735      -0.33240283      -4.28389597
H        4.42277193      -3.27151275      -2.68201280
H        7.38590002      -1.76987970      -3.09901857
H        5.66275311       3.70201135      -1.68238533
H        7.02146626       2.61770535       3.94274354
H        7.16482115       5.66252661       2.37317467
H       10.11054516       0.81090039       0.91542113
H        9.88736820       5.90272951      -1.53003561
H       11.31499958       3.47409153      -2.76181579
18
Properties=species:S:1:pos:R:3 energy=-1723.3199462890625 pbc="F F F"
N        2.01095200      -0.22833560       0.20448726
C        4.77414751      -0.13367923      -0.08741873
C        5.70160627       2.61829114       0.12132042
O        4.76116514       3.64805961       2.44694972
C        8.59727097       2.75314212       0.08518885
C        9.53525543       5.43103504      -0.14316565
C       11.00973320       6.27455235      -2.01762271
H        1.43583286      -2.06607533       0.08462194
H        1.18374336       0.67631412      -1.28620434
H        5.32330179      -0.95828015      -1.90393686
H        5.60562706      -1.27492261       1.42685664
H        4.90194941       3.74275374      -1.42606294
H        3.09195089       2.87141991       2.65081334
H        9.33137321       1.61136949      -1.48046815
H        9.35953045       1.96605217       1.84467506
H        8.95301247       6.72804880       1.34523940
H       11.64226246       5.05017948      -3.53649020
H       11.62073898       8.23440647      -2.06286287
15
Properties=species:S:1:pos:R:3 energy=-1603.8199462890625 pbc="F F F"
C        1.91245949       0.05185409       0.12555340
C        4.72091389       0.00417629      -0.02466093
C        6.19062948      -2.05309296      -0.13330129
C        8.94649220      -1.46276140      -0.27461499
C        8.84329510       1.39121640      -0.24022199
O       10.73243523       2.73624778      -0.33877119
C        6.18630219       2.42565250      -0.06965531
H        1.11620450      -1.85775197       0.11750317
H        1.12283742       1.07706833      -1.48791361
H        1.30052841       0.99036765       1.86404479
H        5.48942757      -3.97556806      -0.12277551
H        9.95936680      -2.16951895       1.37810171
H        9.77683830      -2.13518262      -2.03956246
H        5.75160837       3.55480170      -1.74189281
H        5.94923592       3.49824214       1.67785001
19
Properties=species:S:1:pos:R:3 energy=-1928.1800537109375 pbc="F F F"
C        1.83278871       0.00820141      -0.08798565
C        4.71203232      -0.01591149      -0.03316469
C        5.78231621      -2.39282799       1.24077523
C        6.39400196      -1.64194524       3.96460772
C        6.65918684       1.16832316       3.78908992
C        7.76291943       2.65909028       5.89741945
C        5.74142265       2.05513382       1.60263896
H        1.11713052      -1.54912186      -1.24774837
H        1.12576652       1.77887475      -0.89395386
H        1.02460957      -0.19193949       1.80837345
H        5.44620943       0.14535773      -1.96238613
H        7.53641701      -2.95265937       0.28136131
H        4.50327396      -4.01755762       1.15305424
H        8.13251209      -2.55783892       4.60730362
H        4.85054922      -2.14109755       5.24918699
H        7.80628872       4.68090820       5.45853043
H        9.70272350       2.04789615       6.27305937
H        6.64784861       2.40384507       7.62041521
H        5.68790579       4.02910376       1.07355344
15
Properties=species:S:1:pos:R:3 energy=-1510.43994140625 pbc="F F F"
C        1.68007994       1.67724538      -1.04830670
C        4.32076454       0.75184643      -0.40118885
C        5.68091345       2.60483623       1.23843205
O        8.37023926       2.62785316       0.91655499
C        7.02547264       4.85243893       0.11961967
C        7.49344444       7.10784578       1.68246102
O        5.94538069       8.82248878       1.78598022
H        0.68289036       0.27289534      -2.19276261
H        1.75907052       3.44614244      -2.11944127
H        0.57315391       2.02514386       0.66490012
H        5.36988354       0.40309748      -2.15368319
H        4.18973064      -1.05824661       0.59635979
H        4.92895365       2.72696924       3.13688874
H        6.84283066       5.19173908      -1.88953722
H        9.29869938       7.17428875       2.72188592
12
Properties=species:S:1:pos:R:3 energy=-1280.75 pbc="F F F"
N        1.84866238      -0.13545556      -0.18666714
C        4.59579515      -0.14412941       0.09144384
C        5.75166512      -2.36431193      -1.12412250
C        7.38064671      -1.56945539      -2.85278726
O        7.59802198       1.01090896      -3.15374494
C        5.84719038       1.95856881      -1.47079277
O        5.38471794       4.21890831      -1.24085093
H        1.21983707       1.66516995       0.12311566
H        1.06867790      -1.21772063       1.19842649
H        5.17860556       0.03711422       2.06728482
H        5.35075951      -4.31071091      -0.67213780
H        8.56234932      -2.67267752      -4.09157848
20
Properties=species:S:1:pos:R:3 energy=-1917.4200439453125 pbc="F F F"
C        5.38386774      -1.92576325      -0.67123073
C        4.41991806       0.53188235       0.46666786
C        6.40549135       2.55356812       0.38495612
C        6.56526756       4.32473278      -1.83677602
C        5.78796673       5.34010172       0.71454322
C        3.08373070       6.18310833       1.03984070
N        7.63999271       6.88111639       2.10766816
H        3.91764784      -3.38243961      -0.58961344
H        7.04217768      -2.62091780       0.35413468
H        5.92831659      -1.66256213      -2.65088892
H        3.87783146       0.20344791       2.43634820
H        2.71270180       1.10065210      -0.55380315
H        8.16873837       1.88815761       1.19833207
H        5.14445829       4.18761444      -3.30811667
H        8.42364311       4.79990435      -2.55936956
H        1.79697835       5.26472044      -0.29339889
H        2.92497492       8.22425842       0.73192871
H        2.43011212       5.76644278       2.95853639
H        9.44301796       6.32145500       1.72989309
H        7.40273762       6.65359354       4.00601149
19
Properties=species:S:1:pos:R:3 energy=-1840.9599609375 pbc="F F F"
C        2.89371872      -0.78763783      -0.21968067
O        5.41905403       0.12260543      -0.11515991
C        5.50295830       2.82309961      -0.12744313
C        8.26913929       3.66102314      -0.09233202
C        8.60431957       6.49797440      -0.00062361
C        7.74797153       7.96801138      -2.27485228
C        9.68535709       7.64632320       1.99012733
H        2.94349408      -2.85195589      -0.16860136
H        1.98511946      -0.19297883      -1.97884560
H        1.80973399      -0.11126707       1.40680659
H        4.51026583       3.54703474       1.54061818
H        4.55378628       3.52116442      -1.83033204
H        9.23909760       2.90936565      -1.76447511
H        9.21347332       2.75905681       1.52020907
H        8.62646770       7.21557903      -3.98966551
H        8.25568390       9.96968460      -2.13975573
H        5.69387722       7.85825586      -2.48139930
H       10.33751965       6.58325768       3.62009168
H        9.95715618       9.67961216       2.04302073
14
Properties=species:S:1:pos:R:3 energy=-1373.530029296875 pbc="F F F"
C        2.07945466      -0.04584476       0.10552230
C        4.78716755       0.02488769      -0.86430407
C        5.14784098      -2.04806638      -2.78029728
O        5.65145254      -1.69391274      -5.01501179
C        5.33412981       2.61050558      -1.90803754
N        6.64522219       4.21669722      -0.61070281
O        6.79955578       6.48026752      -1.96900010
H        1.77509534       1.39828396       1.55686975
H        1.63119268      -1.89137018       0.92838466
H        0.72474778       0.30556872      -1.42154646
H        6.09115410      -0.34965602       0.70120180
H        4.93188286      -3.98930645      -2.04619551
H        4.49868202       3.10791922      -3.75721025
H        7.83911324       7.53564215      -0.87233537
15
Properties=species:S:1:pos:R:3 energy=-1542.739990234375 pbc="F F F"
O        5.43660975      -1.73577011      -0.99369359
C        4.17043638       0.36876115       0.07568353
C        3.45640349      -0.18961512       2.69134808
C        2.85966587      -0.66200888       4.83136845
C        5.97943354       2.53907394       0.26017749
C        6.41785002       4.23525429      -1.99532402
C        5.05407238       5.23922777       0.28500849
H        6.12870312      -1.15951705      -2.59136248
H        2.51193738       0.81309247      -1.07916594
H        2.34010458      -1.09598446       6.72699022
H        7.62476158       2.08353639       1.40111852
H        5.32209253       3.93027139      -3.69919562
H        8.32702160       4.89834023      -2.33611727
H        6.03994274       6.57010555       1.49195766
H        3.04119301       5.58962107       0.13016434
17
Properties=species:S:1:pos:R:3 energy=-1562.1199951171875 pbc="F F F"
C        2.03994036      -0.34185144       0.72204548
N        4.58986139      -0.34011289      -0.37599880
C        5.42436457      -2.96361971      -0.92691070
C        3.87049937      -4.31983852      -2.96968579
O        3.76826501      -2.85875869      -5.22974157
N        4.92834902       1.38305271      -2.25724006
C        7.11453533       2.47196960      -2.15273833
H        1.59910512       1.53878510       1.47005570
H        1.90276527      -1.66736209       2.30650520
H        0.59129530      -0.81318694      -0.67964000
H        5.42071724      -4.08392477       0.81611603
H        7.39967632      -2.87952685      -1.55242896
H        1.93577874      -4.68204212      -2.33657074
H        4.73610735      -6.14159107      -3.42681050
H        3.76055503      -1.09160030      -4.64710093
H        7.61861992       3.90370178      -3.57555079
H        8.54443455       2.05388665      -0.69196099
21
Properties=species:S:1:pos:R:3 energy=-2050.2900390625 pbc="F F F"
C        1.62709200       1.84543097      -1.90544868
C        4.43790865       1.57157183      -1.99156344
C        5.99504280       2.43957973      -0.18388925
C        8.86725616       2.25359297      -0.10153499
C        9.61679745       0.80645955       2.30750680
C       10.04128647       0.90024662      -2.39441538
C        9.95059872       4.94934416       0.03310800
H        0.97388923       2.90936565      -3.55404568
H        0.98524654       2.83298302      -0.20499749
H        0.73773021      -0.02120273      -1.94125891
H        5.17973948       0.60401314      -3.64322186
H        5.14712286       3.39700961       1.43375409
H        8.89418507       1.73824573       4.01147270
H       11.67593765       0.68118960       2.49492979
H        8.86963749      -1.12601221       2.28539705
H        9.59946823       1.88146806      -4.16429520
H        9.36372566      -1.05064988      -2.55455065
H       12.10549068       0.82233322      -2.23397756
H        9.44742107       6.04540396      -1.65158284
H       12.01733494       4.91922188       0.16818562
H        9.23567772       5.97569180       1.68508768
17
Properties=species:S:1:pos:R:3 energy=-1580.72998046875 pbc="F F F"
C        3.48427701       0.98358357       2.57140708
C        4.27331352      -0.06827580       0.04093147
C        5.90792656      -2.42204309       0.05055017
C        4.24200058      -4.76471758      -0.11293004
N        5.77146912      -7.06292725       0.00846597
N        3.44566989       1.05607343      -1.98268175
O        4.27093220      -0.15051669      -4.18035746
H        2.35284138       2.69565654       2.33194089
H        5.16721058       1.43844068       3.68018484
H        2.36518121      -0.42834422       3.58178687
H        7.01513577      -2.44190407       1.80192947
H        7.26059246      -2.35269022      -1.51270688
H        3.14628053      -4.76137304      -1.87046981
H        2.88196468      -4.78660059       1.44822943
H        6.96551180      -7.11077499      -1.50439203
H        4.62104177      -8.59613705      -0.18196173
H        3.57900906       0.92853582      -5.50581169
19
Properties=species:S:1:pos:R:3 energy=-1864.4200439453125 pbc="F F F"
C        1.89341104       0.00427078      -0.10382155
C        4.76137304       0.06923956       0.02148619
C        5.78688955       2.13157320       1.72116256
C        8.44340992       1.20171463       2.22195888
O        8.33306885      -1.50692427       2.23431778
C        5.93678236      -2.28405523       1.21161675
C        6.36219788      -4.42171335      -0.65586728
H        1.24328864      -1.54424644      -1.30835187
H        1.16102886       1.77449059      -0.88308793
H        1.05985296      -0.25528312       1.77326226
H        5.51699877       0.35003397      -1.89074659
H        4.72250128       2.21371961       3.49684381
H        5.74888706       4.00856256       0.85765219
H        9.73490524       1.77025759       0.70611507
H        9.19878960       1.87950277       4.02103472
H        4.79192972      -2.96652985       2.79813647
H        7.65947580      -3.83863854      -2.16301823
H        4.59003162      -5.05021763      -1.50926757
H        7.25044441      -6.03261042       0.29052651
14
Properties=species:S:1:pos:R:3 energy=-1489.2099609375 pbc="F F F"
C        0.62901425      -2.72774410       0.09639493
C       -2.12958908      -1.80918598      -0.08762660
C       -2.48912835       1.00677049      -0.00608492
C       -0.55128980       2.63607359       0.02449085
C        2.03030276       1.77509534      -0.02889391
C        2.60508204      -0.69022244       0.00772898
H        0.99040544      -4.07322931      -1.43874300
H        0.87105036      -3.78778601       1.86211729
H       -3.22406173      -2.66483521       1.45064831
H       -2.96040726      -2.51681280      -1.85068440
H       -4.41508055       1.71600366       0.01534458
H       -0.88314462       4.66085815       0.07490874
H        3.51027966       3.19654727      -0.08445186
H        4.57160664      -1.27711475      -0.01388949
18
Properties=species:S:1:pos:R:3 energy=-1763.22998046875 pbc="F F F"
C       -3.41207051       1.46126854       0.38699701
C       -3.06318927      -1.27845645      -0.75228107
N       -0.53913885      -1.13564980       0.40649900
C        1.72280657      -1.96074200      -0.88728309
C        3.59363556       0.14172946      -0.05814687
C        1.93519294       2.37383628       0.88805789
C       -0.55584407       1.64940965      -0.28429040
H       -4.68584061       2.70799637      -0.65526253
H       -3.85294366       1.53600717       2.41125274
H       -3.11511898      -1.39240694      -2.81984925
H       -4.31216621      -2.71685934       0.04455974
H        2.35042238      -3.82605290      -0.25560436
H        1.52570820      -1.99046743      -2.95141196
H        4.84690189      -0.50094748       1.46039927
H        4.76694775       0.72370839      -1.66305351
H        1.84724510       2.39989543       2.95607972
H        2.64573002       4.19625044       0.22499080
H       -0.40026289       2.06754947      -2.32997561
12
Properties=species:S:1:pos:R:3 energy=-1197.1099853515625 pbc="F F F"
C        1.82453060       0.09384380      -0.89971751
O        4.50344419       0.24676044      -0.59900540
C        5.66356611       2.49931407      -0.27357566
N        4.86173630       4.80470419      -0.14172946
O        2.24852848       5.07174158      -0.37864444
C        8.36475945       2.32585597      -0.01538237
C       10.61954308       2.17259932       0.19917713
H        1.33579075      -1.90010071      -1.14362442
H        1.22265279       1.10365677      -2.59926152
H        0.86082697       0.77737665       0.79565030
H        2.02610779       6.89657450      -0.23169932
H       12.61923218       2.04186797       0.38988829
17
Properties=species:S:1:pos:R:3 energy=-1673.219970703125 pbc="F F F"
C        1.81946611      -0.07702523      -0.03429853
N        4.54390335       0.06874824      -0.29942709
C        5.76952267       2.40099144       0.47747710
C        8.43804264       2.41558027      -0.58269703
C        9.80903912       0.03650951       0.27013636
N        8.39966297      -2.28433871      -0.28398803
C        5.98880672      -2.07480597      -0.47887549
H        0.93333572       1.76443732      -0.35853773
H        1.31409669      -0.72144073       1.86423373
H        1.02302217      -1.39692330      -1.41404426
H        4.73468971       4.04616833      -0.23638584
H        5.80497408       2.52100801       2.54606581
H        9.45987415       4.10166931       0.04898170
H        8.36780167       2.47204518      -2.65574551
H       10.19654655       0.11532999       2.30268788
H       11.64101505      -0.06428848      -0.69041145
H        4.86364508      -3.78933549      -0.85511994
14
Properties=species:S:1:pos:R:3 energy=-1483.6800537109375 pbc="F F F"
C        1.86612344      -0.07317019      -0.01511781
C        4.66301250       0.10665614      -0.00039684
C        6.24080181       2.18236923       0.00642507
C        8.75869179       1.28110206       0.02008779
C        8.66860867      -1.31715798       0.02120273
O       10.54249859      -2.98482251       0.03203086
N        6.16944551      -2.01204801       0.00846597
H        1.00191391       1.80610573       0.00137950
H        1.19472265      -1.10171032       1.64940965
H        1.21084201      -1.06529534      -1.70789671
H        5.64737082       4.14046574       0.00207870
H       10.46889400       2.40221977       0.02828920
H        9.85900402      -4.68627501       0.02972539
H        5.51809502      -3.80443454       0.00599043
16
Properties=species:S:1:pos:R:3 energy=-1579.97998046875 pbc="F F F"
O        1.39578950       0.02401842      -0.04514556
C        4.06447983       0.06326803       0.39924243
C        5.66367912      -1.58445978      -1.27239037
C        4.75245333      -2.70041871      -3.69921446
N        5.26883984      -0.68876737      -5.56252241
C        4.84888601       1.73204744      -4.24884129
C        5.71232080       1.21050191      -1.61265445
H        0.61187440       1.60862935       0.45474368
H        4.68177748       0.26992849       2.34654856
H        7.30598354      -2.51384592      -0.49350199
H        5.78573656      -4.42163801      -4.19398260
H        2.73199606      -3.14157510      -3.64894772
H        7.13982010      -0.78892285      -6.00987720
H        5.95352554       3.23619390      -5.13916683
H        2.84963131       2.25954556      -4.32095337
H        7.39729500       2.23091626      -1.07430935
16
Properties=species:S:1:pos:R:3 energy=-1602.2099609375 pbc="F F F"
O        2.88432670       1.30050957       5.24293184
C        4.56865883       2.13745022       3.89986563
N        6.40598249       0.65792704       2.85297632
C        8.42543888       1.62886834       1.23344314
C       10.68791294       2.79898667       2.67110896
C       12.41438580       1.55709648       0.67775029
C       10.29598427      -0.40409905       0.27185601
H        4.74852276       4.15622568       3.41996956
H        6.24616861      -1.20133674       3.28712201
H        7.69581509       2.83714032      -0.28616121
H       10.97273254       2.06371331       4.58759356
H       10.74074936       4.86322927       2.73003054
H       12.77345276       2.75208378      -0.97553331
H       14.20885086       0.81345153       1.37783706
H       10.02167130      -1.02273870      -1.68009877
H       10.47078323      -2.07323742       1.48746014
18
Properties=species:S:1:pos:R:3 energy=-1706.43994140625 pbc="F F F"
C        1.84146249      -0.11128597      -0.07953858
C        4.73402834      -0.05867600       0.09582801
C        5.59572458      -1.45694101       2.48257113
C        5.88625145      -1.32001150      -2.24529696
C        5.55415058       2.69714952       0.09637603
N        6.76302767       3.71130872       1.96608996
O        7.23479748       6.25117636       1.40308380
H        1.17087436       0.86859369      -1.77660716
H        0.98016316       0.83055353       1.55070925
H        1.12771297      -2.05466151      -0.14547111
H        4.80494976      -0.59148431       4.19029760
H        7.65819073      -1.42532599       2.66925716
H        4.99654913      -3.43812990       2.44640160
H        5.29282045      -0.36624783      -3.98509216
H        5.31853962      -3.30567908      -2.38526893
H        7.95512342      -1.24918461      -2.18469357
H        5.05596209       3.82316160      -1.59326589
H        8.13118935       6.82810974       2.90757036
16
Properties=species:S:1:pos:R:3 energy=-1510.6800537109375 pbc="F F F"
C        1.97130561      -0.95805335       0.94694179
C        4.35665035      -0.51192683      -0.61794043
C        5.32872534      -2.99179554      -1.72318459
N        3.77412319       1.24820185      -2.64518189
C        5.49090147       2.66778302      -3.93359733
N        7.80507898       3.12226224      -3.38408375
H        1.26617324       0.82412845       1.72637820
H        2.35662079      -2.23928761       2.52361584
H        0.45784286      -1.78191721      -0.19879919
H        5.79335213       0.28982729       0.63889754
H        3.94070268      -3.84160542      -3.00379539
H        5.73904181      -4.35595083      -0.22234517
H        7.06878519      -2.69115901      -2.80180240
H        2.14871311       0.86821580      -3.59117889
H        4.67879200       3.50929713      -5.66031551
H        8.27739716       2.25561500      -1.72823012
17
Properties=species:S:1:pos:R:3 energy=-1678.31005859375 pbc="F F F"
N        4.98052454      -1.93022299      -0.77852935
C        4.40980816       0.19845904       0.24339673
N        5.61078596       2.42718315      -0.16782658
C        4.89639378       4.82218409       0.96281546
C        6.35839939       6.77708721      -0.57150990
C        8.73480511       5.35366964      -1.33019710
C        7.75101423       2.69724393      -1.87460828
H        3.76699901      -3.29562569      -0.13330129
H        2.81975484       0.34260735       1.58837152
H        5.47841072       4.86028099       2.94935226
H        2.85790849       5.16008615       0.85430741
H        5.28116083       7.30456638      -2.26192665
H        6.75573301       8.49448872       0.50631434
H        9.69304752       6.19216013      -2.95698667
H       10.06636333       5.30680466       0.25668150
H        7.10981131       2.54171944      -3.83769369
H        9.21772480       1.27923119      -1.52837265
18
Properties=species:S:1:pos:R:3 energy=-1697.3199462890625 pbc="F F F"
C        3.98894739      -1.34843302      -2.72054434
O        5.74112034      -0.59669995      -0.82507330
N        6.71325207       1.77978182      -1.48190439
C        8.30409908       2.47304678       0.23712283
C        9.66574097       4.97069788       0.03938189
C        8.97682285       6.60313797       2.30848956
C       12.50184250       4.49184132      -0.08373377
H        3.24193859      -3.20833921      -2.21950221
H        4.93175077      -1.48131847      -4.55654526
H        2.42045569      -0.00408181      -2.81877208
H        8.72322178       1.27800286       1.89785194
H        9.06063175       5.92790079      -1.69619930
H        9.53897858       5.70370388       4.08666515
H        6.93225241       6.91656780       2.39222312
H        9.90477276       8.44883347       2.19743013
H       13.17851543       3.51402140       1.61102927
H       13.54285431       6.27056503      -0.26155698
H       12.97408485       3.30571675      -1.71305561
13
Properties=species:S:1:pos:R:3 energy=-1348.22998046875 pbc="F F F"
O        1.96454036       0.13008875       0.15841573
C        4.27285957       0.08431958       0.09123598
C        5.74085569       2.52769756       0.10089248
N        8.11215973       2.55173492      -0.59605742
C        8.81020546       5.28652763      -0.41037291
C        6.32111502       6.75960684      -0.16261093
N        4.65534019       4.80066013       0.73419642
H        5.43464470      -1.63829803      -0.00379835
H       10.00606251       5.55450964       1.25878441
H        9.86828232       5.87776661      -2.08563399
H        5.68818903       7.45096350      -2.00755048
H        6.46870279       8.34240341       1.15622890
H        2.76901579       4.94314575       0.40109438
15
Properties=species:S:1:pos:R:3 energy=-1524.550048828125 pbc="F F F"
C        2.02854538      -0.02942304       0.18345462
C        4.85085154      -0.01600598       0.09087693
N        6.20170307      -2.07045960      -0.09724531
N        8.67355919      -1.33153880      -0.00776677
C        8.98838806       1.41069949      -0.27433154
C        6.36461639       2.33636284       0.15408827
C        5.52816725       4.68395090       0.56351632
H        1.31853747      -1.95586658      -0.04847148
H        1.27184236       1.14666688      -1.33596075
H        1.38923216       0.70328045       2.00707817
H        9.77750015      -2.33517241      -1.22790623
H        9.61931038       1.87772632      -2.18822718
H       10.33160496       2.13533378       1.11868012
H        6.83100080       6.26771116       0.60034710
H        3.54686475       5.08935356       0.88807678
15
Properties=species:S:1:pos:R:3 energy=-1482.9000244140625 pbc="F F F"
C        1.88972616       0.00000000       0.00000000
C        4.61849070       0.00000000       0.00000000
C        6.86756706       0.00000000       0.00000000
C        9.59633160       0.00000000       0.00000000
C       10.61937237       2.65047312      -0.08311015
N       12.12174320       3.48208499       1.66828799
N       12.86202431       5.89437723       1.25300181
H        1.14519298       1.92920256       0.02201531
H        1.14502287      -0.98356467       1.65968978
H        1.14502287      -0.94544888      -1.68170512
H       10.31284046      -0.98515201      -1.67318237
H       10.33718014      -0.97156489       1.66996992
H       10.05791664       3.82701659      -1.71872485
H       12.98540401       6.80310869       2.95940566
H       14.69870567       5.90159559       0.63831168
12
Properties=species:S:1:pos:R:3 energy=-1245.8699951171875 pbc="F F F"
N        1.67826581       0.12976749       0.23451501
C        4.22597551       0.02498218       0.12921947
C        5.88095999       2.03512168       0.04397393
O        5.04547453       4.44461679       0.03624495
C        8.45520210       1.28888774      -0.03966535
C        8.69060516      -1.30491257      -0.03042459
S        5.81544304      -2.78821540       0.07394499
H        0.82917404       1.80979073      -0.14821123
H        0.65144527      -1.42122519      -0.22321445
H        6.46932602       5.60322714       0.02233656
H       10.05853939       2.55494761      -0.10701519
H       10.40836620      -2.40981650      -0.08277000
20
Properties=species:S:1:pos:R:3 energy=-1914.6700439453125 pbc="F F F"
C        2.00892997       0.18827341      -0.76507455
C        4.70167637      -0.76983660      -1.05276644
C        6.53193283       0.68833274       0.64893198
C        9.23331547      -0.23833226       0.40394786
C       10.60251617       0.55047721      -1.96263182
C       10.77767467      -0.49622318       2.80495834
N        9.82568741      -2.72228289       1.49666309
H        0.73113507      -0.89017439      -1.98292744
H        1.87152803       2.18299270      -1.29748595
H        1.35347855      -0.01035570       1.18735278
H        5.27029514      -0.59806055      -3.03490019
H        4.75706434      -2.78706264      -0.58615524
H        5.89193916       0.52938789       2.61604238
H        6.46756887       2.70680594       0.18073341
H       12.55331802      -0.14180505      -2.00303411
H       10.66958237       2.61626911      -2.09466696
H        9.64784527      -0.17627366      -3.64832425
H        9.89829063      -0.07704414       4.60577297
H       12.80089188      -0.19052219       2.74231386
H       11.22758102      -3.60323524       0.50489706
13
Properties=species:S:1:pos:R:3 energy=-1306.6500244140625 pbc="F F F"
N        2.88493156      -1.14337885       1.41891980
C        4.81111050      -0.41628778      -0.15251979
N        5.52217674      -1.87440050      -1.98296523
C        6.05152655       2.20400643       0.29700825
O        5.61970520       2.88117099       2.88587642
C        8.78535557       2.22326279      -0.20386365
C       11.01959801       2.25319600      -0.59864634
H        2.74091554      -0.07262217       3.01428318
H        2.67721272      -3.01842165       1.72456408
H        4.41203833      -3.45470285      -2.00441360
H        5.06493855       3.57768631      -0.89353812
H        6.95634651       2.05377316       3.83914876
H       12.99904823       2.26721787      -0.97332233
10
Properties=species:S:1:pos:R:3 energy=-1150.3900146484375 pbc="F F F"
N        1.88857341      -0.03713312       0.00000000
C        4.45406580      -0.18506087       0.00000000
O        5.59368372      -2.19266820       0.00000000
C        5.79391909       2.18008256       0.00000000
C        6.91913795       4.14987659       0.00000000
C        8.36099911       6.66047192       0.00000000
C        9.49664879       8.62351990       0.00000000
H        0.96051002       1.62903845       0.00000000
H        0.89858365      -1.66927063      -0.00000000
H       10.51301861      10.36019707       0.00000000
19
Properties=species:S:1:pos:R:3 energy=-1911.760009765625 pbc="F F F"
C        1.91021073       0.00890061       0.14418611
C        4.76781702      -0.00109604      -0.15025212
C        6.10687685       1.95492172      -1.93343544
C        5.39843750       0.09870040      -4.10945511
C        6.09225035      -1.87279415      -2.03461146
C        8.91737175      -1.42948329      -1.60046577
C        8.92880440       1.46945107      -1.52635074
H        1.32091856       1.60736322       1.32069182
H        1.28142333      -1.72677505       1.08028090
H        0.89688289       0.15437172      -1.65061903
H        5.56656647      -0.06160507       1.76797104
H        5.41461325       3.89147520      -2.00488615
H        6.60659599       0.13745868      -5.78962946
H        3.43503070       0.11999761      -4.75475883
H        5.38583279      -3.79757476      -2.20470572
H        9.57329559      -2.25158978       0.18080899
H       10.07229710      -2.16880083      -3.14930415
H       10.08766079       2.27715778      -3.03784823
H        9.59281635       2.19525695       0.29273748
16
Properties=species:S:1:pos:R:3 energy=-1643.510009765625 pbc="F F F"
C        1.54795027      -2.36495447       1.35527384
C       -0.49146107      -2.37782359      -0.66265136
C       -2.82294846      -0.95017320      -0.22533095
C       -2.88931561       1.51147854       0.37599880
C       -0.46411675       2.95422769       0.58604187
C        1.71313119       1.72686958      -0.92058009
N        1.90486288      -1.04564214      -1.02668822
H        2.64984965      -4.07491112       1.59961534
H        1.29147661      -1.27664232       3.06776261
H       -0.70673865      -4.08738327      -1.77163720
H       -4.59112740      -1.98568642      -0.37828538
H       -4.66662216       2.47006106       0.73533022
H        0.04701639       3.10047364       2.58690286
H       -0.75035357       4.88148403      -0.11136156
H        3.51288748       2.49415493      -0.23336229
H        1.55002892       2.37226772      -2.88733149
16
Properties=species:S:1:pos:R:3 energy=-1577.0899658203125 pbc="F F F"
C        2.01416469      -0.64836502      -0.30409473
N        4.77214432      -0.77114052      -0.38212153
C        5.78830671      -0.93962854      -2.94202018
C        5.92092752       1.50242674      -1.46121180
C        8.37118435       2.40159631      -0.37019736
C        9.59669113       4.47885895      -1.88925374
O        8.69357204       5.42738771      -3.80328178
H        1.41351509       0.40676355       1.37076950
H        1.24257052      -2.56103253      -0.15089463
H        1.15195811       0.25086114      -1.96008062
H        4.48596430      -1.05320108      -4.51878881
H        7.48244619      -2.07047844      -3.14888835
H        4.67489910       3.04234576      -1.98347545
H        9.74645138       0.85712308      -0.22232628
H        8.04989338       3.14813256       1.53421199
H       11.42309189       5.15322638      -1.14099777
15
Properties=species:S:1:pos:R:3 energy=-1541.0699462890625 pbc="F F F"
C        1.99642003      -0.05776893       0.24156369
C        4.52391005      -0.01814137       0.04284009
C        6.11141205       2.34220219      -0.14911829
N        8.30194473       1.40461457      -1.46041811
C        8.52812576      -1.14555204      -1.26997161
N       10.57146835      -2.36419868      -1.77947950
C        6.13463688      -2.35369158      -0.28757852
H        0.95896041      -1.82829118       0.26726398
H        0.90587801       1.67490208       0.36959264
H        6.63471508       3.02424216       1.73193395
H        5.18478489       3.84334397      -1.22361660
H        9.92529488       2.41253781      -1.46081495
H       10.30992985      -4.26051998      -1.48213112
H        5.37451363      -3.67778492      -1.67807686
H        6.52218199      -3.28568578       1.51540923
15
Properties=species:S:1:pos:R:3 energy=-1517.1400146484375 pbc="F F F"
O        1.87079108       0.04703528       0.01778232
C        4.54021835      -0.00013228      -0.00944863
C        5.66660833       2.03449798       1.67420292
O        8.14683628       1.14432371       2.31090832
C        7.93012238      -1.54732668       2.61789441
C        5.61571789      -2.32544041       1.17952931
C        4.67370844      -4.67779016       1.13160574
H        1.30546057      -1.31757379      -1.07085109
H        5.23796177       0.19876139      -1.94929028
H        4.57240009       2.32574272       3.41097450
H        5.81139898       3.85462546       0.70326155
H        9.64665508      -2.42434859       1.87362564
H        7.74443769      -1.95786965       4.63689661
H        2.95740247      -5.14081097       0.11232532
H        5.60659075      -6.21107626       2.12766147
12
Properties=species:S:1:pos:R:3 energy=-1266.3800048828125 pbc="F F F"
O        1.87455165       0.15713073       0.00000000
N        4.51236343      -0.08176845       0.00000000
C        5.49936771       2.13954782       0.00000000
C        8.20691013       2.07975698       0.00000000
C       10.45598698       2.07975698       0.00000000
C       13.11294174       2.07975698       0.00000000
C       14.44251537       4.22975492      -0.00000000
H        1.32123983      -1.60201538       0.00000000
H        4.47232056       3.94833708      -0.00000000
H       14.08407211       0.27127019      -0.00000000
H       13.52924824       6.06706047       0.00000000
H       16.49131966       4.18874788       0.00000000
19
Properties=species:S:1:pos:R:3 energy=-1848.4599609375 pbc="F F F"
C        1.70186841       0.21327449      -0.52615643
C        4.48741913       0.15157494       0.07341586
C        5.03232193      -0.06574357       2.86592078
C        6.22969007      -1.20972705      -1.74291337
C        6.33347368       1.63021004      -1.57255447
C        5.48768902       3.20811248      -3.76100850
O        8.47515678       2.68792748      -0.28134242
H        1.31568408       0.02881832      -2.54895711
H        0.86933070       1.98922026       0.13239421
H        0.72693986      -1.34762037       0.42154121
H        7.04724216      -0.32423922       3.26132727
H        4.03558588      -1.69111598       3.67043400
H        4.39835644       1.63941300       3.85152650
H        5.41780710      -2.05341411      -3.42618680
H        7.78058815      -2.30378413      -0.97228301
H        4.05236673       2.27180982      -4.91689730
H        7.09427738       3.62661123      -4.99613333
H        4.71010447       5.00280428      -3.08883286
H        9.89878273       1.52835381      -0.26263413
17
Properties=species:S:1:pos:R:3 energy=-1699.280029296875 pbc="F F F"
C        1.67097139       0.25154144      -0.16916828
C        4.45535040      -0.05342256       0.13604139
C        5.98281622      -1.60481215      -1.68962300
O        4.65021896      -2.64336777      -3.81218243
C        6.24771786       1.23675013      -1.67116046
C        8.55726528       2.37504554      -0.65042484
C       10.85745907       2.24850965      -1.69824016
H        1.01727736       1.88263965       0.92188400
H        0.69029808      -1.42674327       0.53566176
H        1.11739504       0.54552615      -2.14079523
H        4.96997976      -0.19097573       2.11505699
H        7.50204277      -2.73329997      -0.89446408
H        5.77201748      -2.83063960      -5.25581980
H        5.42289019       2.27026033      -3.24055910
H        8.35361004       3.44113469       1.09800649
H       11.17786217       1.23274398      -3.45029974
H       12.46576786       3.16685987      -0.81745774
14
Properties=species:S:1:pos:R:3 energy=-1440.02001953125 pbc="F F F"
N        1.92878675       0.00451645      -0.03286234
C        4.66803932       0.21697836      -0.09176510
C        5.48942757       2.72638345       0.99099129
C        7.08987474       2.34998775       2.93083286
C        7.56723833      -0.33945149       3.44580221
O        8.53768826      -2.02574873       1.55269349
C        5.84968519      -1.74370694       1.63124943
H        1.42364407      -1.68174291      -0.81118387
H        1.18104100       1.35130537      -1.18595433
H        5.36687899       0.00083148      -2.02835655
H        4.89609146       4.54507494       0.28757852
H        7.96347618       3.84340072       4.01808691
H        7.60172558      -0.92948067       5.40393639
H        4.68013334      -3.27204180       2.29518580
20
Properties=species:S:1:pos:R:3 energy=-1860.469970703125 pbc="F F F"
C        1.29763710       0.41150677       2.25425434
N        3.60215807       1.34040165       3.45063996
C        5.30971479       2.63550663       1.66857147
C        4.11149597       4.99579334       0.49556178
C        7.81452799       3.29496431       3.02390194
C        7.57031870       5.11913586       5.25169992
O        6.07662249       4.06755972       7.21811152
H        0.23251191      -0.72085494       3.62075305
H        1.71305561      -0.79379839       0.62445998
H        0.06143500       1.96195149       1.66760767
H        4.53999138      -0.18579787       4.18326807
H        5.78842020       1.32339406       0.13347135
H        3.31669617       6.25287724       1.93351114
H        2.59011531       4.49254036      -0.81348932
H        5.51293564       6.06828833      -0.58766705
H        9.13287640       4.10637474       1.64338148
H        8.67586517       1.53232229       3.70235133
H        6.73791313       6.92206669       4.67941523
H        9.44228077       5.51886940       6.03512383
H        4.57786179       3.34899163       6.39209318
15
Properties=species:S:1:pos:R:3 energy=-1408.9599609375 pbc="F F F"
C        2.25612521      -0.36964932      -0.58114749
N        4.99006748      -0.19246861      -0.30158138
C        5.76198292       2.43158627       0.09989092
C        8.55824852       2.47701526       0.48936349
C       10.36495876       2.76521730      -1.69183397
O        9.73458385       4.85325146      -0.08040785
H        1.71866810      -2.34830594      -0.85224760
H        1.59145176       0.70101279      -2.22233677
H        1.28248155       0.31252292       1.11229277
H        5.82551527      -0.85683960      -1.90499508
H        4.84828138       3.20510769       1.78955173
H        5.22087860       3.60504937      -1.52085161
H        9.16844082       1.49193883       2.17392206
H        9.62511253       2.78772402      -3.59888887
H       12.23858452       1.96363330      -1.50699985
17
Properties=species:S:1:pos:R:3 energy=-1586.699951171875 pbc="F F F"
N        5.12457800      -1.73996532      -1.55722880
C        4.32777500       0.24793206       0.17326899
C        6.26464987       2.29605508       0.17725632
C        6.55122709       4.22323561      -1.90611005
N        4.96521759       4.16780996      -4.17540646
C        5.45197344       4.99042654       0.60735798
O        7.08038807       6.45617390       2.20895767
H        3.86617184      -3.19467640      -1.46175981
H        6.80736065      -2.46153831      -0.95801556
H        4.13279343      -0.52632654       2.08276176
H        2.46730208       0.94699848      -0.40226600
H        7.98433876       1.69026554       1.11818874
H        8.48035431       4.83091497      -2.28511357
H        3.14777350       3.69953585      -3.74373651
H        5.56135082       2.71506405      -5.30306292
H        3.44515967       5.40238667       0.68631071
H        7.22434759       8.17623997       1.57159078
19
Properties=species:S:1:pos:R:3 energy=-1784.0999755859375 pbc="F F F"
N        2.16929221       4.06047344       0.65987349
C        4.71397877       3.54310417      -0.25989404
C        6.43812704       2.73256278       1.91085327
C        9.06316471       2.12286162       0.90018994
C       10.76240635       4.35850239       0.08261883
C       12.88141251       2.88585758       1.41750252
N       10.90764999       1.65968978       2.97329521
H        1.09093893       4.74565029      -0.78077817
H        2.23216343       5.44673872       1.99632561
H        5.46775246       5.23658228      -1.18185365
H        4.62459469       2.05199695      -1.69330800
H        5.64555693       1.05524194       2.83918118
H        6.52838039       4.23493290       3.33908939
H        9.03396797       0.57940894      -0.48998708
H       10.30898476       6.17313051       0.97449398
H       10.99093056       4.63426971      -1.95089662
H       13.90927219       1.57366943       0.18710178
H       14.23838711       4.02774334       2.47612715
H       11.22601223      -0.19668269       3.37231088
16
Properties=species:S:1:pos:R:3 energy=-1615.0400390625 pbc="F F F"
C        1.74811006      -0.05606817       0.33553976
C        4.59252596       0.10631599      -0.04382275
C        5.96869993       2.09474254       1.60316801
C        7.85744333      -0.02369717       2.20600963
N        5.93823767      -1.88086331       1.40417993
C        5.31285143       0.04459754      -2.69219828
C        5.90940046      -0.00816362      -4.88314676
H        1.24540508      -0.12064011       2.34356284
H        0.95750535      -1.75018871      -0.55722356
H        0.79937303       1.59300137      -0.48293841
H        4.89792442       2.74724603       3.25382495
H        6.75407028       3.74288607       0.63311493
H        9.55551338      -0.01107380       1.01963949
H        8.42747974      -0.17128478       4.18663168
H        6.62252617      -3.32321572       0.32883126
H        6.43495226      -0.05536897      -6.82682467
22
Properties=species:S:1:pos:R:3 energy=-2048.320068359375 pbc="F F F"
C        1.85280085      -0.14569789      -0.10760101
N        4.61284018       0.08363928      -0.15505204
C        5.61324263      -1.49645519      -2.19922543
C        5.57478666       2.73467946      -0.13776104
C        4.76630497       4.29143572      -2.46730208
C        4.63523388       4.11962175       2.26156759
C        8.49609566       2.74845552       0.00389284
H        1.02708507       0.76652962       1.55218327
H        1.30207801      -2.13805509       0.03875828
H        0.96243751       0.62549937      -1.80763638
H        4.91837120      -3.43930149      -2.01083875
H        7.67276049      -1.65035450      -2.11993265
H        5.06355906      -0.81347042      -4.07266235
H        5.46002340       3.46199727      -4.23102140
H        5.53177643       6.21406221      -2.36200643
H        2.71049094       4.46905136      -2.60576224
H        5.05206966       3.02630186       3.97114611
H        2.60024428       4.48945999       2.20856071
H        5.56021690       5.96261501       2.46775556
H        9.17817307       1.56276572       1.55879724
H        9.21713924       4.66399527       0.32682812
H        9.36773109       2.08310175      -1.75136042
20
Properties=species:S:1:pos:R:3 energy=-1919.47998046875 pbc="F F F"
C        1.55658627      -0.35721493       0.13810119
C        4.38514709       0.18260424       0.02609712
C        5.18302727       2.93438554      -0.11429064
C        3.57216811       4.89612913      -0.21161154
C        8.01822090       3.39940953      -0.06328693
C        9.35544872       2.52650714      -2.48478198
N       12.04377270       3.16846609      -2.42907286
H        1.23179913      -2.39844036       0.23632915
H        0.58728909       0.35052529      -1.54751563
H        0.69129962       0.49951130       1.81060326
H        5.14623451      -0.81503886      -1.62181962
H        5.26218796      -0.66450328       1.70275664
H        1.53574264       4.65658760      -0.22011530
H        4.24806643       6.83447790      -0.27896136
H        8.82891369       2.43175626       1.58247554
H        8.39488125       5.42016935       0.22476402
H        8.48299980       3.40598559      -4.14471722
H        9.18529701       0.47575745      -2.70228958
H       12.24274158       5.08340120      -2.35586476
H       12.85949230       2.60918260      -4.08224297
14
Properties=species:S:1:pos:R:3 energy=-1482.3599853515625 pbc="F F F"
C        1.69672835      -0.00944863      -0.00549910
C        4.50304747       0.01865160      -0.00646286
C        6.05430460       2.11881757      -0.00423299
O        5.45365524       4.55459881      -0.00049133
N        8.51391506       1.29489708      -0.00661404
C        8.56883049      -1.29329073      -0.01048798
C        6.11061859      -2.13877320      -0.01058247
H        0.91360700       1.90476835       0.02059801
H        0.98838347      -1.01268530       1.65931177
H        0.98730630      -0.96806890      -1.69593477
H        6.97964668       5.57265139       0.00075589
H       10.06078815       2.41125274      -0.00580146
H       10.34373760      -2.30669427      -0.01294462
H        5.52397203      -4.09883499      -0.01330367
13
Properties=species:S:1:pos:R:3 energy=-1375.18994140625 pbc="F F F"
C        1.89397800      -0.12111255       0.02791126
O        4.57580185      -0.01315249       0.02698529
C        5.46888638       2.52949286       0.00000000
C        8.19765091       2.52949286       0.00000000
C       10.44672775       2.52949286       0.00000000
C       13.34210873       2.53170395      -0.00000000
C       15.60847664       2.53240299       0.00000000
H        1.32226026      -2.10636425       0.04905729
H        1.13164365       0.76635951      -1.67724538
H        1.13136017       0.80258560       1.71358478
H        4.75171614       3.52399898       1.66894948
H        4.75171614       3.48837781      -1.68967974
H       17.62163925       2.52835917       0.00005669
17
Properties=species:S:1:pos:R:3 energy=-1615.8699951171875 pbc="F F F"
C        5.59468555       0.95529437      -3.68666673
C        5.16635990      -0.31898576      -1.14613783
C        6.36282110       1.11518407       1.05926704
C        9.19657898       1.11864233       0.94588351
C       10.62451267       3.45079112       0.14191844
N       10.57367897       2.65788102       2.78220606
H        4.60165310      -0.08362038      -5.17716932
H        7.60197163       0.99885255      -4.18152952
H        4.88101149       2.89632654      -3.67532825
H        5.90537548      -2.25291252      -1.22072530
H        3.12649512      -0.46279392      -0.81371605
H        5.78515100       0.19263868       2.82364774
H        5.61424398       3.04778814       1.12525630
H        9.99387360      -0.72760123       0.56219351
H        9.57879543       5.15573978      -0.29118791
H       12.39505386       3.22413731      -0.85336250
H       12.23493767       1.80500972       3.28081012
15
Properties=species:S:1:pos:R:3 energy=-1475.0999755859375 pbc="F F F"
C        1.95203042      -0.18855688      -0.33251622
O        4.55195332       0.01171630       0.30842221
C        5.46888638       2.52949286       0.00000000
O        4.47781944       4.22845125       1.85890472
C        4.92226410       3.44253302       4.39102411
C        8.19765091       2.52949286       0.00000000
C       10.44672775       2.52949286       0.00000000
H        1.35903430      -2.14304399      -0.02078699
H        1.65621269       0.27482286      -2.32566714
H        0.79672742       1.03963280       0.86403948
H        4.83715105       3.24365830      -1.84108460
H        4.13948298       4.88271236       5.65001678
H        6.94158792       3.27402616       4.79448080
H        3.96294475       1.65604258       4.79134369
H       12.45989037       2.52278447       0.00436527
15
Properties=species:S:1:pos:R:3 energy=-1524.2900390625 pbc="F F F"
C        1.94957376       0.12768880       0.40476045
C        4.73215771      -0.12149049      -0.25061548
C        5.25067949      -0.14169167      -3.07329941
O        6.21597052       1.81967402       1.00590122
C        7.70607662       0.04939744       2.47185636
C        6.19074297      -2.09357095       1.28374767
O        6.16542053      -4.37662458       1.47281480
H        1.65895283       0.22767420       2.45241094
H        0.87694633      -1.49377179      -0.30517188
H        1.14088440       1.84201050      -0.42709699
H        7.28109598      -0.22185385      -3.46927261
H        4.50340652       1.56365395      -3.97777891
H        4.36779976      -1.78269207      -3.97343254
H        9.70132446       0.09461859       1.95271075
H        7.43119669       0.29028082       4.50093079
12
Properties=species:S:1:pos:R:3 energy=-1277.8499755859375 pbc="F F F"
O        3.16304255      -0.57311612      -2.02760053
C        4.93511438      -0.09323908      -0.06695300
C        5.51178312       2.62881684      -0.08730534
C        4.20513201       4.78531551      -0.73117286
N        5.68616724       6.87748814      -0.33436814
C        7.81458426       5.92260981       0.51292837
O        7.85778379       3.35827017       0.73094606
H        2.93002033      -2.39365935      -2.08895993
H        6.63405371      -1.21894896      -0.41498387
H        4.10044098      -0.65065163       1.73998427
H        2.29936218       4.92419147      -1.45178211
H        9.51492214       6.91524506       1.05603564
13
Properties=species:S:1:pos:R:3 energy=-1270.0799560546875 pbc="F F F"
C        1.80903482      -0.05601148       0.00976988
C        4.68083286      -0.01581701       0.00859825
C        5.69943285       2.67747736       0.01621385
C        8.55104828       2.77188802       0.01353044
O        9.93455505       0.91406053      -0.00823921
H        1.11943603      -2.00609541       0.00702978
H        1.05374908       0.89418060      -1.66552901
H        1.05492067       0.88909727       1.68843246
H        5.37831163      -1.03169596      -1.65755439
H        5.37993670      -1.04105008       1.66836357
H        5.04505873       3.69345093       1.69693625
H        5.04126024       3.70556402      -1.65560794
H        9.36485958       4.69228458       0.03023562
19
Properties=species:S:1:pos:R:3 energy=-1804.6700439453125 pbc="F F F"
C        1.84671593       0.00211649       0.04157398
C        4.73060799       0.02579476      -0.02086258
N        5.53060484       0.25163594      -2.68150258
C        5.84707737       2.15321064       1.58066142
C        8.45837593       1.17561758       2.24756479
N        8.09284687      -1.52468777       2.70211935
C        5.89779758      -2.35516572       1.20254612
H        1.13948596      -0.17602798       1.98028183
H        1.08464611      -1.58846605      -1.04543424
H        1.06104338       1.74977303      -0.74634731
H        7.45226717       0.19832675      -2.79303408
H        4.99118233       1.96418130      -3.37767768
H        4.73661757       2.42850590       3.31261444
H        5.92363024       3.97214770       0.59488577
H        9.77600670       1.46482122       0.67582273
H        9.23174667       2.11747599       3.91679764
H        9.66337872      -2.51600027       2.19520044
H        6.46564150      -3.76161337      -0.21021314
H        4.55690432      -3.28372049       2.47977424
11
Properties=species:S:1:pos:R:3 energy=-1198.3199462890625 pbc="F F F"
O        1.96461594      -0.08741873       1.06306541
C        4.15677404       0.29194379       0.46218923
N        5.53806925       2.48105931       0.75505900
C        7.74262381       1.97444260      -0.18923718
N        8.25957680      -0.39905345      -1.14453149
C        8.09908295      -2.57153940       0.56374311
C        5.76697159      -1.67471313      -0.73606724
H        9.28960991       3.35326242      -0.38319868
H        9.03984547      -4.23342133      -0.16153379
H        8.40332890      -2.13745022       2.53877139
H        5.07508612      -2.60158587      -2.41714859
13
Properties=species:S:1:pos:R:3 energy=-1352.75 pbc="F F F"
C        1.74778879      -0.07207415      -0.00493219
C        4.52910662       0.16329123      -0.00604712
C        6.12101173       2.20478129      -0.00230547
O        5.33554745       4.61236811       0.00398732
C        8.58300400       1.22115993      -0.00648176
N        8.57659721      -1.30404329      -0.01266117
N        6.09929895      -1.89628351      -0.01235881
H        0.83644950       1.78477073       0.01916182
H        1.10605669      -1.11767852       1.66076696
H        1.10189927      -1.07667148      -1.69413948
H        6.78014851       5.74792337       0.00570697
H       10.37266922       2.20740795      -0.00542351
H        5.61190081      -3.75063396      -0.01661069
12
Properties=species:S:1:pos:R:3 energy=-1257.510009765625 pbc="F F F"
C        1.86761630       0.01536347      -0.01475876
N        4.58817959       0.04667624      -0.00194642
C        6.10816193       2.13057184       0.00610382
C        8.52969456       1.18678582       0.01729099
N        8.50852966      -1.40433109       0.01619495
C        6.10767031      -2.03708696       0.00447865
H        1.15318644       1.95295632       0.00442196
H        1.21641672      -0.98989522       1.66781557
H        1.23274398      -0.95104247      -1.72605693
H        5.38348961       4.04063129       0.00330702
H       10.28708363       2.23410988       0.02607822
H        5.38059855      -3.94926310       0.00022677
17
Properties=species:S:1:pos:R:3 energy=-1660.989990234375 pbc="F F F"
C        3.78075624      -0.48951465      -2.56483078
C        4.82114506       0.42862767      -0.04869824
C        6.48342371       2.76735282      -0.32567540
O        5.03504324       4.83350372      -1.31492817
C        5.78647375       6.94689798       0.17606579
C        6.32049131       5.78407383       2.71376014
O        7.50822210       3.44323230       2.09393001
H        2.64225292      -2.19312167      -2.28658748
H        5.31476021      -0.94987082      -3.87293696
H        2.57851243       0.94149935      -3.44825888
H        5.90223837      -1.08929479       0.85976869
H        3.23162055       0.85049015       1.21617103
H        8.06622028       2.39224219      -1.60641837
H        7.49425697       7.75794935      -0.66641194
H        4.29867363       8.37751484       0.22580338
H        7.55181789       6.93786478       3.90441990
H        4.57266474       5.36270285       3.74020267
17
Properties=species:S:1:pos:R:3 energy=-1699.52001953125 pbc="F F F"
C        1.67592251       0.12022438       0.17685947
C        4.53434134       0.08486760       0.02879943
C        5.94715691       1.92294753       1.76585460
O        7.59828663      -0.07823467       2.64374566
C        5.90781307      -1.97251499       1.57661736
C        7.07042933      -4.02562666       0.05289343
C        9.49353027      -3.96058249      -0.67081499
H        0.87558573      -1.48209333      -0.85814351
H        0.92651385       1.85620236      -0.66216004
H        1.00678945       0.01591149       2.13221574
H        5.17998505       0.22826003      -1.93829215
H        4.86372042       2.73031402       3.33209729
H        6.99708891       3.41654921       0.79810691
H        4.75764990      -2.78602314       3.10130525
H        5.87963724      -5.61490536      -0.46065855
H       10.73128223      -2.40061355      -0.17081234
H       10.30174732      -5.48742437      -1.77554893
17
Properties=species:S:1:pos:R:3 energy=-1748.3199462890625 pbc="F F F"
C        3.47269297      -1.15685260      -2.19663644
C        5.09568453      -0.45105875       0.06753881
C        5.67628384       2.32553482       0.09809569
C        8.02591228       3.28003550      -0.01674297
C        8.63274097       6.05029821       0.02108934
C        9.97327518       6.75231266      -2.30495572
C       11.07226467       7.33436728      -4.20551014
H        3.06309485      -3.18449092      -2.17739916
H        4.43599987      -0.71495897      -3.97450972
H        1.66889274      -0.14189954      -2.17140865
H        6.83598995      -1.57433081       0.03431743
H        4.09344912      -0.93981749       1.81256866
H        4.06591606       3.59800076       0.22763641
H        9.63524151       2.00276947      -0.13452961
H        9.81828022       6.45473766       1.67000771
H        6.91426229       7.19042683       0.21297213
H       12.04401875       7.84376192      -5.89426374
16
Properties=species:S:1:pos:R:3 energy=-1464.449951171875 pbc="F F F"
C        2.20319390      -0.93390268      -0.15809450
C        5.06015730      -0.63235903      -0.27215835
C        5.84293890       2.12152004       0.11283555
N        8.59840488       2.32906866       0.00512116
C        9.40750980       4.93951750       0.33589882
H        1.68013656      -2.91645217      -0.43520394
H        1.27908003       0.18576008      -1.63278008
H        1.46584165      -0.32628012       1.67735875
H        5.73471403      -1.31636429      -2.10916114
H        5.92281723      -1.82823443       1.18198586
H        5.15706253       2.77986264       1.95412803
H        4.97638607       3.30072784      -1.35466909
H        9.22749519       1.67834139      -1.69629371
H        8.81481647       5.67926931       2.17471576
H        8.66146564       6.16056395      -1.15847766
H       11.47220612       5.03457069       0.26367348
15
Properties=species:S:1:pos:R:3 energy=-1471.8900146484375 pbc="F F F"
C        4.57549953      -1.79930270      -2.75421906
C        6.06046486      -0.83265114      -0.50200576
C        5.11624432       1.73875594       0.25358236
N        6.58509064       3.68889666       0.11848583
N        5.50891066       5.90053749       0.85413730
C        6.87752581       8.09736347       0.82701975
O        6.01713371      10.14741325       1.47026360
H        5.23546743      -3.68114877      -3.30116248
H        4.78873587      -0.53645545      -4.37976170
H        2.55638361      -1.92247510      -2.31653976
H        8.07638741      -0.73886400      -0.95614475
H        5.80818653      -2.10400224       1.11002517
H        3.13993120       1.85984957       0.91625261
H        3.68772507       5.99320984       1.44327831
H        8.83768177       7.84019041       0.16952734
12
Properties=species:S:1:pos:R:3 energy=-1355.22998046875 pbc="F F F"
C        1.93322766       0.03431743      -0.18515536
C        4.19961405       0.02579476      -0.08715417
C        6.90696812       0.01621385       0.04023227
C        8.35956287      -1.36957896      -1.97546303
C        8.37303638       1.47922087      -1.92880571
C       10.62547684       2.78243279      -1.16849327
N       12.45070648       3.82457900      -0.54773712
H       -0.07891496       0.03972204      -0.26503408
H        7.68553495      -0.06009329       1.94012511
H        7.32249975      -2.29403305      -3.48250079
H       10.04994106      -2.37929749      -1.40365076
H        7.29995537       2.42206192      -3.40078902
17
Properties=species:S:1:pos:R:3 energy=-1651.97998046875 pbc="F F F"
C        1.55193758      -0.67121184       0.17704844
C        4.38395691      -0.22871356       0.06132161
C        5.02980852       2.57611251       0.07339697
O        7.71450472       2.82880664      -0.00464873
C        8.45956707       5.41115522      -0.08603923
C       11.30819702       5.52688217      -0.14754982
O       12.50446892       7.04597616      -1.43437767
H        1.14078987      -2.69809437       0.15382370
H        0.59860855       0.19577563      -1.44144535
H        0.74768907       0.12676282       1.90811312
H        5.16445160      -1.11185813      -1.64300346
H        5.30865622      -1.16392016       1.66237319
H        4.30661011       3.47295761       1.79503191
H        4.19481421       3.50961828      -1.57659853
H        7.81076717       6.39052486       1.61598039
H        7.70717239       6.32459211      -1.78250313
H       12.28597927       4.27444696       1.20199811
12
Properties=species:S:1:pos:R:3 energy=-1323.2099609375 pbc="F F F"
O        2.32243562      -0.28837222      -0.82042462
C        4.56327295       0.14223969      -0.50918669
C        5.55394268       2.57503533       0.47983927
C        8.07068062       2.41149831       0.26569548
C        8.93504047      -0.00311805      -0.74681979
C        8.35519695      -2.39282799       0.63859516
N        6.62262106      -1.39017701      -1.16552639
H        4.38771725       4.10165071       1.13336325
H        9.36268616       3.90663075       0.79171968
H       10.17587280      -0.00215429      -2.37196541
H        9.24478626      -4.12952423       0.03201196
H        7.72452021      -2.34001017       2.58297205
19
Properties=species:S:1:pos:R:3 energy=-1860.6500244140625 pbc="F F F"
C        3.88729882      -0.65314603      -2.79199481
C        4.57969475       0.13995312      -0.11644492
C        5.94993496       2.67653251      -0.02951752
C        4.40738916       4.93006849      -0.89196962
C        5.84728527       7.10850716       0.27973616
O        6.94302368       6.18006563       2.57717061
C        6.67052555       3.48302984       2.63282323
H        3.00190544      -2.52185845      -2.77245498
H        5.56739759      -0.75250787      -3.99297237
H        2.55020428       0.67141968      -3.64690685
H        5.79295540      -1.31717694       0.71998566
H        2.85586762       0.21353905       1.03279197
H        7.67262840       2.57444954      -1.18283629
H        2.49149060       4.84648609      -0.10329243
H        4.25305557       5.10165596      -2.94617748
H        7.39098358       7.73185205      -0.94930393
H        4.63453436       8.73062897       0.68973112
H        8.44303226       2.62569880       3.26261210
H        5.19500828       3.02949548       4.01287127
18
Properties=species:S:1:pos:R:3 energy=-1692.3800048828125 pbc="F F F"
C        2.69718719       5.01788425      -2.65430927
C        4.85765457       4.49656534      -0.84584141
O        6.98953009       3.70305061      -2.28789139
C        9.14396858       3.07507586      -0.78064585
C       10.87312508       1.45287812      -2.41832042
C       10.52475452       5.45781231       0.07197967
H        1.01032317       5.63227224      -1.63055015
H        2.23513031       3.32259202      -3.74727035
H        3.22440195       6.48589897      -4.01442099
H        4.31430149       3.00354958       0.48072743
H        5.30149460       6.21727467       0.21026982
H        8.55616951       1.95866334       0.86422843
H       11.44862270       2.47055244      -4.12691641
H        9.87774944      -0.24950054      -3.04767466
H       12.56881428       0.87760770      -1.38433778
H       10.94217587       6.68645573      -1.54046690
H       12.29580498       4.99350691       1.03322661
H        9.36597443       6.56220627       1.38036931
16
Properties=species:S:1:pos:R:3 energy=-1564.1800537109375 pbc="F F F"
C        1.11905801       1.89836216      -0.88858700
N       -0.94762206       0.57761371       0.37365556
C        1.44692552      -0.76316589       0.04979428
C        3.05313611      -1.46822274       2.29716992
C        2.56347013      -0.36513290       4.93921518
C        2.63473177      -3.09911299       5.82638454
O        2.68968511      -4.02706289       3.25813341
H        0.91534555       2.21258593      -2.89844298
H        1.97867548       3.42586565       0.16652267
H       -2.25115514      -0.07441741      -0.89302790
H        1.48978448      -2.27746010      -1.32932782
H        5.04709959      -1.25914347       1.74365032
H        0.73778689       0.55797946       5.22393990
H        4.07001638       0.84007776       5.67601919
H        4.33803654      -3.65321851       6.85915804
H        0.95417941      -3.74500251       6.83933449
15
Properties=species:S:1:pos:R:3 energy=-1349.5899658203125 pbc="F F F"
C        6.75244522       3.97309256       4.14711761
O        7.93350506       1.95369339       2.82300520
C        7.83642960       2.28762698       0.12717856
S       10.03754520       4.49577188      -1.24330747
C       12.93850136       3.67030168       0.22733405
O       10.26992416       3.91857386      -3.91420865
O        9.37391090       7.03059387      -0.43235046
H        6.71595430       3.48696041       6.15540504
H        4.80583811       4.23944950       3.50279641
H        7.82866287       5.72114611       3.93599725
H        5.93099976       2.81705260      -0.48543286
H        8.28807449       0.45383662      -0.71679205
H       12.78545284       4.00312042       2.25672984
H       14.42380714       4.85988426      -0.57037604
H       13.34016228       1.68476641      -0.16281880
14
Properties=species:S:1:pos:R:3 energy=-1492.4000244140625 pbc="F F F"
C        1.89367568      -0.10229088       0.00578256
C        4.76210976       0.00000000       0.00000000
C        5.67299557       2.57223845       0.00000000
C        6.42374611       4.69232225       0.00000000
C        7.33463192       7.26456070       0.00000000
C        6.23307276       9.76111603       0.00000000
N        5.35501146      11.75109196       0.00000000
H        1.24230599      -2.06722808       0.00506447
H        1.10503626       0.83489990      -1.66530228
H        1.11195266       0.83140391       1.68204522
H        5.47191000      -1.00680828      -1.66450858
H        5.47871304      -1.00928378       1.66006768
H        8.63909054       7.31520557      -1.62425745
H        8.63909054       7.31520557       1.62425745
18
Properties=species:S:1:pos:R:3 energy=-1699.780029296875 pbc="F F F"
C        4.50089312       2.01594090      -2.62091780
C        6.20858192       2.54959965      -0.38505059
O        8.66855145       3.15657973      -1.30929673
N       10.22759438       3.70930552       0.76231551
C       12.44356346       4.31218481      -0.06778447
C       14.52471828       5.01826239       1.72957182
C       16.67486763       3.13407302       1.53663075
H        2.59155154       1.53655517      -1.99231935
H        5.24572849       0.45045403      -3.75035048
H        4.39892340       3.66334748      -3.86881733
H        6.32277775       0.88184071       0.83654398
H        5.46597624       4.14422607       0.70751345
H       12.89292145       4.33728075      -2.10626984
H       13.79322433       5.07850647       3.66383886
H       15.19313335       6.90874434       1.22127330
H       16.03037643       1.22274733       1.99827206
H       18.19728851       3.64046288       2.84103322
H       17.45294380       3.08830380      -0.38040188
13
Properties=species:S:1:pos:R:3 energy=-1278.25 pbc="F F F"
N        1.67371154       4.46007490      -0.24133693
N        4.22510624       4.64840508      -0.23663151
C        5.34061193       2.49462748       0.03036790
O        7.87923193       2.20710564       0.07955747
C        9.31429005       4.49138784      -0.15979524
C       12.01453876       3.87497783       0.01640282
C       14.22298622       3.37370920       0.16686282
H        0.91190624       6.18675566       0.18885922
H        1.03394473       4.11040020      -2.03521609
H        4.39380217       0.65114295       0.24636360
H        8.80130482       5.80499315       1.35676670
H        8.91795731       5.36623621      -1.99676025
H       16.18008041       2.91996694       0.30530414
9
Properties=species:S:1:pos:R:3 energy=-993.4099731445312 pbc="F F F"
O        1.90845335      -0.11899605       0.03535677
C        4.61363411       0.02636168       0.00079368
C        5.53153086      -1.37417102      -2.21814156
C        6.27581835      -2.52709293      -4.02929306
C        5.47408295       2.68573546       0.07405837
N        6.10787821       4.78414392       0.21686497
H        1.32286501       1.02991962       1.34438896
H        5.27617216      -0.93103027       1.71392488
H        6.92019606      -3.54607105      -5.64202309
17
Properties=species:S:1:pos:R:3 energy=-1650.489990234375 pbc="F F F"
O        4.81277323      -1.72044444       1.53838825
C        4.29289103       0.05295013      -0.43233153
C        5.48215199       2.61107230       0.23425046
O        4.46338177       3.40065670       2.62139034
C        8.37692928       2.43330574       0.42700252
C        9.57934284       4.99154139       0.76384622
C       11.31278896       5.97684479      -0.79538572
H        3.96553349      -3.28768873       1.07859898
H        2.23654747       0.23906925      -0.56801391
H        5.03549671      -0.68438321      -2.21623302
H        4.93577576       4.01430750      -1.18536854
H        4.61662006       1.92156804       3.71860313
H        9.13183689       1.51011801      -1.26772273
H        8.91410255       1.27592421       2.06135106
H        8.97532940       6.07518625       2.40601826
H       11.98056126       4.96833563      -2.45048356
H       12.10569859       7.83399200      -0.43064970
17
Properties=species:S:1:pos:R:3 energy=-1622.3599853515625 pbc="F F F"
C        4.64674187      -1.93039310      -0.06205861
C        3.83544493       0.82065135      -0.23589452
C        6.07038593       2.55674267      -0.19707954
C        7.12058258       3.61444139      -2.60950398
N        5.67324114       5.21674013      -0.87462193
N        7.36906242       6.57346916       0.45629328
C        6.46377039       8.74206161       1.11348331
H        2.99616075      -3.17504215      -0.11791891
H        5.66479445      -2.28989458       1.70430624
H        5.90021610      -2.43719864      -1.62873602
H        2.60391045       1.26515269       1.36855853
H        2.71247506       1.08927596      -1.95658469
H        7.34668827       2.16872525       1.35848629
H        6.18586731       3.18216658      -4.37613344
H        9.13967896       3.92031240      -2.75334978
H        7.64503813      10.05377769       2.21532583
H        4.53713799       9.38740349       0.63715899
12
Properties=species:S:1:pos:R:3 energy=-1346.9599609375 pbc="F F F"
C        2.79828763      -0.94769764       1.89760625
C        4.33059072      -0.05778782       0.08159837
C        5.77318907       2.42536902       0.00000000
C        4.98116684       4.19562674       2.01499605
C        4.35117006       5.65838814       3.63290405
C        8.45625973       1.92808759       0.00000000
N       10.59493828       1.53171754       0.00000000
H        1.88498294      -2.77517629       1.68911278
H        2.41873598       0.08110704       3.63180804
H        4.58991814      -1.24470592      -1.58394957
H        5.27934694       3.31992745      -1.80729628
H        3.79878426       6.95551491       5.07348013
13
Properties=species:S:1:pos:R:3 energy=-1352.800048828125 pbc="F F F"
C        1.92559314       0.01375721      -0.25966728
C        4.75547695       0.02415070       0.15822677
C        5.99205685      -2.21848178      -1.06637251
N        7.63719606      -1.65152621      -2.78708148
N        7.67750359       0.93172950      -2.89999270
C        6.04013157       2.13677001      -1.24474370
O        5.70651960       4.39671230      -0.99924940
H        1.05701828       1.70793450       0.55115753
H        1.05775535      -1.64716089       0.61748689
H        1.45448446      -0.02562469      -2.27621293
H        5.25264502       0.07300012       2.16375542
H        5.52234650      -4.15832329      -0.49242485
H        8.82265854       1.84871912      -4.13052559
14
Properties=species:S:1:pos:R:3 energy=-1319.449951171875 pbc="F F F"
C        2.11628532      -0.31157804       0.00651956
N        4.84444523      -0.12373926      -0.29591221
C        5.71285009       2.44940639       0.18173496
C        8.52651978       2.54198408      -0.11096472
C        9.75693989       4.03460312      -1.74228966
H        1.51516354      -2.25689983      -0.35887790
H        1.11701715       0.92160052      -1.32071066
H        1.54158187       0.16410382       1.93661022
H        5.31300259      -0.60019594      -2.10324621
H        5.24283743       3.01896977       2.11768389
H        4.79457521       3.78187108      -1.11493838
H        9.60910606       1.30243707       1.12153351
H        8.76228237       5.30761719      -3.00617623
H       11.80634785       4.00353622      -1.84524202
17
Properties=species:S:1:pos:R:3 energy=-1703.43994140625 pbc="F F F"
C        1.94141018      -0.10835689      -0.09677287
C        4.76392412       0.11829685      -0.01500443
C        6.47913408      -1.19266284      -2.06040621
C        8.48415184      -0.50374430       0.02101376
C        6.39088392      -1.50116062       1.87568545
O        8.52190876       2.22904539       0.23757637
C        5.86773205       2.80975819       0.21932161
H        1.08052647       0.67183542       1.61582923
H        1.35378087      -2.08674908      -0.24970841
H        1.15876114       0.90659612      -1.72161615
H        6.67158365      -0.20365578      -3.86422539
H        6.14994383      -3.20550466      -2.41319919
H       10.33676434      -1.40193117      -0.00765339
H        6.05307627      -3.54329324       1.89692605
H        6.49861717      -0.80534458       3.82036495
H        5.42281485       4.00266695      -1.40911210
H        5.34284163       3.73920107       1.98963594
11
Properties=species:S:1:pos:R:3 energy=-1231.300048828125 pbc="F F F"
C        2.02656126      -0.00716206      -0.19747639
C        4.51179695      -0.09853032       0.19345127
N        5.92208052      -2.25368738       0.56497145
C        8.19629002      -1.41306162       0.85219091
N        8.48781872       1.11446595       0.71395743
C        6.18533802       2.16551280       0.28867456
O        5.64158821       4.38000727       0.05070135
H        1.06416142       1.78102911      -0.47524723
H        0.91916281      -1.72911835      -0.24532425
H        9.88827515      -2.56643701       1.19455254
H       10.09149647       2.12044287       0.88747209
13
Properties=species:S:1:pos:R:3 energy=-1307.1800537109375 pbc="F F F"
C        1.80729628       0.06135941       0.65467674
C        4.59375429       0.04210310      -0.07744098
O        4.81199884      -1.00471067      -2.55451298
C        5.72093821       2.70763731       0.00000000
C        8.44879532       2.64761972      -0.03637723
N       10.62317085       2.59980965      -0.06536563
H        1.54137397       0.74921972       2.58731842
H        1.01234519      -1.84514749       0.51823848
H        0.70830715       1.25823641      -0.62969452
H        5.61328030      -1.21673799       1.21352541
H        3.65850973      -0.12812343      -3.68608093
H        5.10091877       3.67978811       1.72148383
H        5.03304005       3.81110525      -1.61312687
17
Properties=species:S:1:pos:R:3 energy=-1643.4300537109375 pbc="F F F"
C        1.63977206      -0.21446502       0.31375122
C        4.48335648       0.00914627      -0.07196077
C        5.28023481       0.02330032      -2.83759379
O        4.21562004       2.15077281      -4.09728527
C        5.79110336       2.04184914       1.54645741
O        7.38907480       0.17633034       2.74919248
C        6.03068304      -1.85805428       1.53506231
H        1.15040863      -0.32338884       2.32300258
H        0.90141827      -1.91654134      -0.60389978
H        0.64573830       1.42158425      -0.47214806
H        4.67057133      -1.69763553      -3.81420422
H        7.33688068       0.15507093      -3.03346395
H        2.46622491       1.75085020      -4.49514818
H        4.60095406       3.00379539       2.93850517
H        6.91104984       3.44822097       0.52517378
H        7.31146383      -3.11239791       0.50383878
H        4.97351360      -2.97059274       2.92272592
19
Properties=species:S:1:pos:R:3 energy=-1839.260009765625 pbc="F F F"
C        3.74740243      -0.91351253      -2.53072119
O        4.20991278       0.15250090      -0.11293004
C        5.77001429       2.38748002      -0.08409281
C        4.50004244       4.88756895      -0.92590910
C        5.99058294       6.22400188       1.18712592
C        6.11203575       3.64242816       2.55587339
C        8.54354668       3.04998016       3.94737339
H        2.56938505      -2.59432936      -2.29499674
H        5.53083134      -1.46484005      -3.41872239
H        2.74845552       0.44049516      -3.73113203
H        7.57770729       2.04415464      -1.04760742
H        2.44628835       4.92292547      -0.66059154
H        4.94025421       5.51117849      -2.84562516
H        7.82626295       6.95564747       0.56521708
H        4.97587585       7.72091055       2.18520379
H        4.47114849       3.33243752       3.79228354
H       10.20372772       3.34997416       2.74917364
H        8.55845642       1.07939267       4.57740784
H        8.73631763       4.25332022       5.61915731
14
Properties=species:S:1:pos:R:3 energy=-1475.5799560546875 pbc="F F F"
O        1.87721610      -0.10076020       0.15694176
C        4.18107557       0.01375721      -0.03514891
C        5.54744244       2.41669512       0.03979763
C        8.04048252       2.68189931      -0.23500635
N        8.75377846       5.17444801      -0.07604258
C        6.49916506       6.79156256      -0.08811793
C        4.29581976       4.93229866       0.38130894
H        5.35351849      -1.69041669      -0.28446048
H        9.45263672       1.23699582      -0.56434780
H       10.20429420       5.69674969      -1.22539294
H        6.30036592       7.71597862      -1.93037415
H        6.61347437       8.23947048       1.38335514
H        2.76117325       5.24818516      -0.96789885
H        3.55784416       5.13096571       2.30446434
13
Properties=species:S:1:pos:R:3 energy=-1350.1099853515625 pbc="F F F"
C        1.72703958       0.15174501      -0.33177921
C        4.23406363       0.12065902       0.00995886
C        5.71477747       2.51050115      -0.09008324
O        4.71639729       4.56616402      -0.44979262
N        8.26341343       2.12650871       0.25849563
C        9.95815754       4.05495548       0.23763306
N       12.32456684       3.64002824       0.56245810
H        0.62895757      -1.57790244      -0.26178375
H        0.71082050       1.90182042      -0.68965554
H        5.20823622      -1.64313579       0.36458486
H        8.91775036       0.36369669       0.53664440
H        9.19461346       5.96675348      -0.06957971
H       12.70045280       1.76749861       0.81883723
17
Properties=species:S:1:pos:R:3 energy=-1648.22998046875 pbc="F F F"
O        4.69253016      -2.00828767       0.95289439
C        4.54499912       0.04170626      -0.81131613
C        5.76528978       2.40664172       0.34823874
O        4.71496105       2.81554079       2.79945922
C        8.58181286       2.13926458       0.61956561
C       10.35078621       3.41515088      -1.21768284
C       10.15102291       4.36950016       1.44970345
H        3.85846162      -3.44404483       0.16189283
H        2.53758097       0.38879225      -1.17100656
H        5.48081064      -0.51351416      -2.56974411
H        5.30633211       4.05537128      -0.81738216
H        4.72960663       1.14611888       3.59066868
H        9.12178326       0.31142688       1.37543714
H        9.57044220       4.59195900      -2.70208168
H       12.06127167       2.42153287      -1.75020766
H       11.70980167       4.00871372       2.72893453
H        9.19444370       6.15098286       1.78235185
11
Properties=species:S:1:pos:R:3 energy=-1028.25 pbc="F F F"
N        1.74761868      -0.15238751      -0.37728381
C        4.41882229       0.05852482       0.22858128
C        5.21749592       2.76385665       0.12806673
C        6.23681450       4.02957630       2.07248163
H        1.22038519      -1.99778068      -0.24744074
H        1.46962106       0.35243392      -2.21213222
H        5.53117180      -1.03923595      -1.13005626
H        4.75562811      -0.75067478       2.10398316
H        4.95903826       3.74740243      -1.65625048
H        6.52855015       3.14308691       3.89833498
H        6.77478170       5.99857664       1.87406027
18
Properties=species:S:1:pos:R:3 energy=-1756.949951171875 pbc="F F F"
C        2.08089089      -0.53416890       0.96410048
N        4.80540371      -0.12559120       0.96230525
C        5.52495432       2.52747083       0.45521614
C        4.62489700       4.29111433       2.57497859
C        8.43284607       2.66370130       0.16429280
C        9.30569172       5.14423132      -0.76002896
C       10.03610897       7.15981340      -1.49808037
H        1.70050788      -2.56282759       1.10919368
H        1.20139337       0.14832461      -0.77905852
H        1.17183805       0.35887790       2.59107900
H        5.58143854      -1.25188684      -0.39793852
H        4.65889311       3.13176751      -1.33148217
H        5.35453892       3.68744159       4.41612005
H        2.56048441       4.35349417       2.68889141
H        5.25236130       6.23622847       2.25293159
H        9.06467628       1.22212374      -1.18737161
H        9.35310459       2.22872400       1.97062528
H       10.69224072       8.95320129      -2.14296842
17
Properties=species:S:1:pos:R:3 energy=-1743.9200439453125 pbc="F F F"
C        2.40269232      -0.38856548       0.39661571
C        5.15505934      -0.28204164      -0.19518982
C        6.08440781      -0.91772658      -2.80975819
C        6.17851639       1.78361797      -1.88451052
C        8.64389038       3.01961231      -1.23780847
C        9.49438095       4.16227293      -3.56527066
C       10.19537449       5.10405588      -5.48360729
H        1.96915138       0.86636382       1.98202038
H        1.86402583      -2.31228781       0.93029326
H        1.23688245       0.18319005      -1.21416795
H        6.29307127      -0.89918840       1.39355969
H        4.71397877      -1.37598515      -4.26259851
H        7.84262800      -1.95762396      -2.97650766
H        4.81683636       3.11368275      -2.65376139
H       10.02325821       1.65162063      -0.52432340
H        8.34499264       4.44620419       0.23026313
H       10.81985378       5.94362354      -7.20401382
19
Properties=species:S:1:pos:R:3 energy=-1899.3399658203125 pbc="F F F"
C        1.49683321       0.62582058       0.37624449
C        4.29340124       0.18664825       0.28727618
C        5.29465342      -2.14308167       0.32885015
C        6.06239271       2.37308025       0.06646167
C        4.98256540       5.09804630       0.22727737
C        7.41519070       5.82145262       1.66511333
C        7.56614208       3.03465462       2.50364137
H        0.88728309       1.76634586      -1.23828089
H        0.97292548       1.60350823       2.12214351
H        0.43526062      -1.15021956       0.31649134
H        4.11242199      -3.81635857       0.45822078
H        7.32244301      -2.45086145       0.23281425
H        7.30301666       2.15753818      -1.58950531
H        3.27795672       5.34448576       1.37679780
H        4.70785570       6.05838633      -1.58198428
H        8.97215557       6.41070700       0.43299294
H        7.18853712       7.20713186       3.17897296
H        9.47325420       2.24890637       2.62566113
H        6.56721401       2.65130472       4.27926588
17
Properties=species:S:1:pos:R:3 energy=-1606.5 pbc="F F F"
C        5.43568373       7.45941067       2.03194690
O        7.77229261       6.12864637       2.08298850
C        8.22552395       4.84333038      -0.25675708
C       10.72665215       3.43404818      -0.09743428
C       12.89371490       5.29350090      -0.12663054
N       13.57377052       6.44727325       2.06628323
N       14.07921600       5.87058544      -2.18516588
H        5.22153997       8.46289253       3.82404971
H        3.86122084       6.13735819       1.82031643
H        5.41945124       8.84098911       0.49478701
H        8.24923992       6.21765232      -1.80805218
H        6.69331551       3.48707390      -0.58025932
H       10.92046261       2.14268494      -1.70141494
H       10.83294964       2.33048582       1.65148830
H       12.11690521       6.75786829       3.28511882
H       14.64915657       8.00487995       1.75814450
H       13.37385654       4.87252665      -3.68632650
17
Properties=species:S:1:pos:R:3 energy=-1590.6400146484375 pbc="F F F"
N        1.98606431      -0.26106566      -0.18549551
C        4.75674295      -0.14154048      -0.03894725
C        6.30278444      -1.34986913      -2.12119865
N        4.99879789      -2.59476399      -4.23170137
C        6.15871191       1.48339725      -1.90741396
C        8.42887783       2.94578075      -1.10756850
O        9.89526749       3.57385015      -3.26705313
H        1.19759500       1.24943018       0.71573377
H        1.33097196      -1.82666600       0.72697765
H        5.52548361      -0.26662147       1.86379910
H        8.06378269      -2.25089049      -1.56399405
H        3.24964857      -1.77738190      -4.39998150
H        4.60879660      -4.42371655      -3.76858640
H        5.05560303       2.51813555      -3.28927612
H        9.62575436       1.88560653       0.20626360
H        7.86050463       4.70615530      -0.18303888
H        9.97871780       2.06581092      -4.31861019
12
Properties=species:S:1:pos:R:3 energy=-1210.27001953125 pbc="F F F"
C        1.81468511      -0.08798565      -0.00761560
C        4.68722010      -0.02152398      -0.00527234
C        5.68418264       2.68685031       0.01534458
C        8.45792294       2.72933149       0.01730989
N       10.65314198       2.76680470       0.01887836
H        1.14356780      -2.04432464      -0.02246884
H        1.05248296       0.86473870      -1.67815244
H        1.05032873       0.84003997       1.67579019
H        5.39267349      -1.02579999      -1.67611146
H        5.39053822      -1.05032873       1.65145051
H        4.97759533       3.68364310       1.68816793
H        4.97957945       3.70826626      -1.64341927
19
Properties=species:S:1:pos:R:3 energy=-1783.47998046875 pbc="F F F"
C        3.80685329      -0.01445641       1.16299415
C        5.26479578      -0.19141036      -1.33365536
C        4.05217743      -2.10899115      -3.16287231
N        3.99726200      -4.67620277      -2.13771486
C        5.37893534       2.39040899      -2.55145144
C        7.58401918       4.11930084      -2.02992487
N        7.28808784       2.89666677      -4.48394203
H        4.65048361       1.40869629       2.40528131
H        3.81509256      -1.81759524       2.17552829
H        1.83637917       0.53534049       0.84013444
H        7.19137192      -0.83032680      -0.89631599
H        5.10517073      -2.13527703      -4.94707632
H        2.11651206      -1.52924192      -3.61954355
H        5.80321646      -5.24737263      -1.77989531
H        3.32172275      -5.87404346      -3.48692274
H        3.53189826       3.22538447      -2.85650992
H        9.13695812       3.43548441      -0.88318241
H        7.25964737       6.13792515      -1.96227276
H        6.62171364       4.14732504      -5.79716969
17
Properties=species:S:1:pos:R:3 energy=-1652.8499755859375 pbc="F F F"
C        5.58992338      -0.08035115       2.37886286
O        5.14045191       1.34489918       0.14210741
C        6.29171085       3.79417324       0.06568688
C        5.52433109       4.94329691      -2.48107815
C        5.34811401       5.50768232       2.19916868
C        9.18006325       3.58554745       0.05572802
O       10.58301449       4.54169226       1.63810909
H        4.74833393      -1.94849658       2.11711693
H        4.68257141       0.79793686       4.01279545
H        7.61158991      -0.32720608       2.71907020
H        6.11001348       3.72344089      -4.05047703
H        6.37831688       6.80592442      -2.77073526
H        3.46604109       5.13034201      -2.61759186
H        6.02348328       4.86791563       4.04783106
H        3.27986526       5.51796246       2.27880192
H        6.01159668       7.45372248       1.95361781
H        9.97418213       2.44787574      -1.50244570
15
Properties=species:S:1:pos:R:3 energy=-1495.739990234375 pbc="F F F"
O        5.02604771      -2.16345286       0.74640405
C        4.46256924       0.06198302      -0.67967778
C        5.62994766       2.36455750       0.63974786
O        4.65685225       2.45702195       3.17286897
C        8.52425194       2.27196097       0.77055472
C        9.70920467       2.45959187      -1.73590243
C       10.68929291       2.59805226      -3.78122854
H        4.33030748      -3.58225942      -0.19702284
H        2.40229535       0.24640138      -0.72969884
H        5.16711617      -0.16856357      -2.60903144
H        5.01771402       4.09341145      -0.32212272
H        4.75243425       0.71388185       3.78521585
H        9.14882565       0.54664105       1.73367250
H        9.19085312       3.83336616       1.96176255
H       11.56935692       2.71540427      -5.58746672
13
Properties=species:S:1:pos:R:3 energy=-1251.47998046875 pbc="F F F"
C        0.75356609       0.06077359      -0.27718502
C        3.08271027      -0.43599761       0.58243251
C        5.23200893       1.40924442       0.58611745
O        7.35481405       0.22975290      -0.59524482
N        9.43528938       1.87039423      -0.44272503
C       11.36337662       0.77265233      -1.45057273
H       -0.71306926      -1.37277269      -0.21843344
H        0.25749409       1.89388359      -1.05236959
H        3.49187374      -2.29868174       1.34716690
H        5.71360588       1.88957500       2.54162502
H        4.75201893       3.14168859      -0.44329196
H       13.19737530       1.75291002      -1.52087045
H       11.28187275      -1.14432371      -2.26587605
12
Properties=species:S:1:pos:R:3 energy=-1262.9599609375 pbc="F F F"
N        1.88972616       0.00000000       0.00000000
C        4.06481981       0.00000000       0.00000000
C        6.79358435       0.00000000       0.00000000
C        7.93029261      -2.35274673       1.20517290
N        8.58704758      -1.45240569       3.72867537
N        8.86362839       1.08782089       3.81214452
C        7.79115200       1.94233608       1.78838015
H        7.56173897       0.34309867      -1.88813877
H        9.65814495      -2.89910436       0.20244636
H        6.65699482      -3.98036790       1.27038729
H       10.04147530      -2.41087484       4.56134558
H        7.63524961       3.96889734       1.35415888
20
Properties=species:S:1:pos:R:3 energy=-1909.239990234375 pbc="F F F"
C        2.06530070      -0.03484655       0.45387441
N        4.77662277       0.13783662       0.00888171
C        5.63869715       2.76323318       0.17222963
C        8.46255302       2.94207692      -0.45068079
C        9.40520477       5.61088037      -0.23296544
C       11.44614697       6.54912949      -1.98423135
C        8.79367065       7.53670025      -2.24066710
H        1.47527134      -2.01425910       0.35058200
H        0.99569672       1.02168047      -0.96806890
H        1.56781125       0.66720563       2.33521008
H        5.17686701      -0.56115419      -1.74181724
H        5.30733347       3.50015068       2.08100414
H        4.57173872       3.95115280      -1.15018177
H        8.80400753       2.20835280      -2.35985231
H        9.55026054       1.75311780       0.85381603
H        9.46055508       6.24832296       1.71509659
H       12.14528847       5.30051184      -3.45031857
H       12.86748505       7.80838633      -1.21465921
H        8.42343521       9.45883560      -1.63833582
H        7.70628405       6.94740820      -3.87331486
17
Properties=species:S:1:pos:R:3 energy=-1633.6800537109375 pbc="F F F"
C        1.47457218      -0.19849683      -0.98821336
C        4.18058443      -0.09856811      -0.06876713
C        6.12499905      -1.41347730      -1.72874033
N        5.93602657       1.32645547      -1.70366371
C        4.61096954       0.06149169       2.81710935
C        2.97395658       1.58400619       4.59069300
N        2.83655453      -1.16475165       4.55732012
H        1.35737133      -0.31991175      -3.05283356
H        0.44232818       1.49845839      -0.41201699
H        0.50714582      -1.85527647      -0.21518311
H        5.49345255      -2.34739900      -3.43775201
H        7.77879286      -2.24038363      -0.85224760
H        7.34995747       2.11596417      -0.65838057
H        6.58201075      -0.10650496       3.39052773
H        1.35313845       2.57847452       3.83771253
H        3.84479904       2.44681740       6.22861290
H        3.77659869      -1.92744505       6.05961466
18
Properties=species:S:1:pos:R:3 energy=-1765.1199951171875 pbc="F F F"
C        3.66028619      -1.44934440      -0.41649565
N        3.46188378       1.29480255      -0.29785863
C        5.91644907       2.50156283       0.17946729
C        7.27476549       3.75072837      -1.97351658
C        6.10326719       5.35100508       0.06426959
C        7.71059275       6.62330103       1.93118668
C        9.69015694       8.11935997       1.43464231
H        1.81447721      -2.26064157      -0.87139052
H        4.27425814      -2.23161530       1.39834070
H        4.99127674      -2.04220819      -1.88585222
H        2.20500803       1.77246869       1.08275640
H        7.08976126       1.56526017       1.58895731
H        6.37637043       3.76416445      -3.81416655
H        9.31181431       3.56137776      -2.05059862
H        4.40831518       6.39235783      -0.43331420
H        7.19859028       6.33094168       3.90436316
H       10.28114986       8.49263668      -0.49418229
H       10.75947666       8.99040985       2.94821835
16
Properties=species:S:1:pos:R:3 energy=-1613.989990234375 pbc="F F F"
C        1.72677505       0.06581916       0.30067432
C        4.57005692      -0.11948738       0.07220644
N        5.85123444       1.71035337       1.73202848
C        7.56281614      -0.01825476       2.58091235
O        9.59958172       0.28463054       3.55385685
C        5.91440821      -2.22409439       1.62444639
C        7.26121616      -4.25090122       0.12268102
H        0.82097262      -1.49265683      -0.71461886
H        1.03899038       1.83526421      -0.52326518
H        1.09823322      -0.01024232       2.27112961
H        5.22488499       0.06916398      -1.88691044
H        6.50366259       3.45515633       1.30472362
H        4.76377296      -3.03507018       3.14964437
H        8.46748447      -3.44283533      -1.35105968
H        5.89278984      -5.50813580      -0.78606939
H        8.45202732      -5.40204668       1.36253035
14
Properties=species:S:1:pos:R:3 energy=-1497.1700439453125 pbc="F F F"
N       -0.10212080       0.04845258      -2.46253991
C        0.04340701      -2.06148338      -0.59188110
C        2.38789582      -1.23418009       0.82764333
C        2.32249236       1.31281161       0.88282335
C       -0.06181294       2.08115530      -0.50123096
C       -2.33037257       1.19288957       0.99295658
C       -2.26510143      -1.35578406       0.93762541
H        1.52769244       0.11287335      -3.47787094
H        0.06780338      -3.92106843      -1.47508240
H        3.73251152      -2.45966744       1.74013543
H        3.60404778       2.56454730       1.84902143
H       -0.13367923       3.97641850      -1.30323076
H       -3.65775394       2.37676525       1.98060310
H       -3.52991390      -2.64816761       1.87179267
19
Properties=species:S:1:pos:R:3 energy=-1861.739990234375 pbc="F F F"
C        6.56186628      -1.27195573      -2.30584383
C        5.65740538       0.22438608      -0.01562803
C        6.23365831       3.08643293      -0.10622150
C        5.05206966       4.36080742      -2.42525554
C        5.18678808       4.33726168       2.29913521
C        9.09030056       3.47006631      -0.07033560
O       10.28868961       4.59738255      -1.70613921
H        6.15453577      -3.28307796      -2.03504610
H        8.60207081      -1.07684159      -2.58380365
H        5.60107279      -0.67421651      -4.03585052
H        6.52998638      -0.60667765       1.67259657
H        3.61247611      -0.06351370       0.17993972
H        5.88730955       3.67916441      -4.19118595
H        5.34845400       6.41106606      -2.38007236
H        3.01124072       4.02031660      -2.50583363
H        6.00692892       3.49605012       4.00535011
H        3.12965107       4.13390827       2.41609049
H        5.63178062       6.36006212       2.34452653
H       10.08480740       2.64591885       1.56951201
19
Properties=species:S:1:pos:R:3 energy=-1912.6199951171875 pbc="F F F"
C        4.58982372      -1.68918836      -2.14211798
C        6.85620975      -0.59386533      -0.75407630
C        6.14440680       1.72652936       0.71758568
C        7.14866400       4.01861620       0.30071211
C        6.53814983       6.32489443       1.66641724
C        4.59779835       6.25831938       3.74447346
C        7.70615196       8.49703979       1.06089222
H        5.14173698      -3.39232302      -3.17780137
H        3.82059169      -0.33293194      -3.50266409
H        3.08110404      -2.20561266      -0.82320249
H        8.35735130      -0.18056333      -2.12114191
H        7.60824537      -2.00809860       0.55894321
H        4.74514008       1.44579172       2.19569159
H        8.55452538       4.20295858      -1.19457150
H        2.76149464       5.64245749       3.01432109
H        4.31968737       8.12198639       4.60416651
H        5.18423700       4.97020674       5.25561190
H        9.11212730       8.60373402      -0.42889225
H        7.28648138      10.24688911       2.04755616
13
Properties=species:S:1:pos:R:3 energy=-1323.800048828125 pbc="F F F"
S        1.59432411      -0.06217199       0.01919962
C        4.73489761      -0.04227317       0.00548021
N        6.05048752       2.16330171      -0.00631169
C        8.77603912       2.36115623      -0.06374046
C       10.00772476      -0.17243750      -0.02065471
C        8.67563820      -2.31493330       0.01135725
N        6.09759808      -2.22655082       0.01249109
H        5.01053333       3.76756597      -0.01473986
H        9.35465431       3.48104572       1.57514346
H        9.29214287       3.39177489      -1.78021646
H       12.05480862      -0.23706615      -0.02252554
H        9.54617786      -4.17075777       0.03522449
H        5.09585428      -3.86016250       0.03036790
19
Properties=species:S:1:pos:R:3 energy=-1799.6500244140625 pbc="F F F"
C        1.76674271      -0.33382013       0.03165291
C        4.60463905       0.13469967      -0.22007750
C        5.81808901      -1.59812248      -2.18333292
N        5.14640474       2.80658340      -0.78712761
C        4.03290224       3.92530131      -3.04200554
C        6.58813334       4.21762323       0.84497213
N        7.18373728       6.56547546       0.70530248
H        0.92849803       0.95977300       1.41321278
H        1.40627754      -2.26969337       0.66903865
H        0.76892954      -0.07428513      -1.76160276
H        5.44675779      -0.35761178       1.61118054
H        4.98853683      -1.35017157      -4.06166410
H        5.57626057      -3.58269405      -1.64854038
H        7.84767342      -1.22176468      -2.33785582
H        3.12885737       2.53013539      -4.26993084
H        5.48610163       4.86946535      -4.17312002
H        2.59852457       5.31753826      -2.50849795
H        7.30203390       3.13001013       2.47346258
H        6.41110373       7.35345364      -0.87431961
13
Properties=species:S:1:pos:R:3 energy=-1327.3900146484375 pbc="F F F"
C        2.14708805       0.15663940       0.01067695
C        4.91846561       0.34185144       0.00060471
C        6.63900471       2.27670431      -0.00024566
C        6.26765490       5.03485394       0.00950532
N        9.00938320       1.24612319      -0.01169741
N        8.81802940      -1.25834978      -0.01812247
O        6.25025034      -1.85676932      -0.01035570
H        1.51977444      -1.81391037      -0.00680301
H        1.35342181       1.09511518      -1.65243328
H        1.36816168       1.06102455       1.69941187
H        4.26019859       5.53092623      -0.00360938
H        7.14975977       5.88523102      -1.65638280
H        7.12443781       5.86956501       1.69636941
18
Properties=species:S:1:pos:R:3 energy=-1710.5699462890625 pbc="F F F"
N        3.54843330      -2.42931843      -1.20054305
C        3.05387306       0.08399833      -0.13932951
C        5.44549131       1.71726978      -0.15393709
O        7.29339790       0.57411772       1.45673323
C        9.55736542       2.02595639       1.53971112
C       11.39092922       0.63292599       3.17545795
C       12.46875286       1.57140172       5.26487160
H        2.10846186      -3.61226821      -0.71794474
H        5.12516403      -3.11956000      -0.31607559
H        2.39227986      -0.14921278       1.80954504
H        1.55730438       1.00062883      -1.23374546
H        4.98923588       3.60631561       0.55869752
H        6.19629860       1.88481283      -2.07679009
H        9.15050793       3.91309381       2.29066944
H       10.34557056       2.21230245      -0.36653128
H       11.84625816      -1.28267050       2.58837676
H       12.05838013       3.46573877       5.93466616
H       13.77810669       0.43764168       6.36416292
13
Properties=species:S:1:pos:R:3 energy=-1364.02001953125 pbc="F F F"
C        1.88972616       0.00000000       0.00000000
C        4.61849070       0.00000000       0.00000000
C        6.86756706       0.00000000       0.00000000
C        9.59633160       0.00000000       0.00000000
O       10.50597000      -1.32469797      -2.16059947
C       10.61820126       2.68513083      -0.02689080
O       11.50671291       3.77304602       1.82640135
H        1.14517403       1.92918360       0.02227987
H        1.14504170      -0.98386699       1.65951967
H        1.14513624      -0.94520324      -1.68189406
H       10.34702492      -0.95319676       1.67492092
H        9.38643932      -0.93450737      -3.56476045
H       10.41562271       3.69783497      -1.83868468
19
Properties=species:S:1:pos:R:3 energy=-1865.219970703125 pbc="F F F"
C        1.95998621      -0.09219974       0.18593015
C        4.82993221       0.08088028      -0.02347040
C        5.61494303       0.28257075      -2.80066872
C        5.90089655       2.23405313       1.57104278
C        8.48230076       1.25326633       2.28498125
C        7.99896526      -1.54694867       2.60457182
O        5.92567110      -2.20179558       0.98137259
H        1.37710011      -0.38076091       2.15328622
H        1.23807299      -1.71810126      -0.87535894
H        1.04312885       1.61932528      -0.52657217
H        7.67438555       0.26284200      -3.01377296
H        4.88295794       2.01093316      -3.67219138
H        4.91296673      -1.34206462      -3.87811494
H        4.78467321       2.49453306       3.29889488
H        5.96403217       4.04767990       0.58112860
H        9.82222939       1.57563472       0.73875064
H        9.25822163       2.13128972       3.98728442
H        9.64705181      -2.69174480       2.11473584
H        7.44106102      -1.99301851       4.54617071
13
Properties=species:S:1:pos:R:3 energy=-1316.780029296875 pbc="F F F"
C        1.98865330      -0.05483985      -0.02031456
C        4.83475113       0.16032436       0.02195862
C        6.33330393      -2.27326488      -0.05243990
C        6.64985180      -3.11152864      -2.66978621
N        6.86439228      -3.83096623      -4.72898293
N        5.81009531       2.41618490       0.06377826
O        8.44911671       2.33651400       0.03133166
H        1.11253846       1.81288981       0.09915393
H        1.36364532      -1.19394791       1.58608496
H        1.39142430      -0.96744531      -1.77477407
H        5.30054951      -3.70571518       1.02865350
H        8.16527939      -2.04419231       0.87596363
H        8.90130901       4.12563133      -0.02859156
12
Properties=species:S:1:pos:R:3 energy=-1304.9100341796875 pbc="F F F"
O        2.29798245      -0.13161942       1.25999379
C        4.44189596      -0.04654396       0.38620332
C        5.88987970       2.36431193      -0.09270997
N        8.22002506       1.37866855      -1.10104895
C        8.37715626      -1.21263731      -1.28514600
O       10.19951344      -2.36629605      -2.08918667
C        5.95586872      -2.33390617      -0.33841217
H        6.27772713       3.37614703       1.66061568
H        4.96791983       3.53369331      -1.51760125
H        9.69837666       2.46112251      -1.65968978
H        5.01234722      -3.36573458      -1.85446382
H        6.31907415      -3.50481844       1.32042718
17
Properties=species:S:1:pos:R:3 energy=-1750.239990234375 pbc="F F F"
C        1.52929866       0.06920177       0.13337687
C        4.35202026      -0.29876569       0.06876713
C        5.18164778      -3.00358748       0.33431146
C        5.91257524       1.69258988      -0.23564886
C        8.75084972       1.70950294      -0.28963831
C        9.63930416       2.21101737      -2.87312078
C       10.37433147       2.61702514      -4.97920179
H        0.99038655       2.05832744      -0.05491544
H        0.75932974      -0.62213564       1.92523408
H        0.63436216      -0.97300106      -1.41394973
H        4.22979307      -4.17982864      -1.07825887
H        4.68873167      -3.71654320       2.21296382
H        7.21036339      -3.27158833       0.06774668
H        5.07397127       3.56411791      -0.43509054
H        9.56456566      -0.05429183       0.41296184
H        9.42217445       3.19841814       0.98486859
H       11.02018356       2.97431564      -6.85443354
17
Properties=species:S:1:pos:R:3 energy=-1787.780029296875 pbc="F F F"
C        1.70207632       0.05285564       0.16289440
C        4.57823944       0.00188973       0.20250306
C        5.72063541       2.16736460      -1.25164115
C        7.17279577       1.27581084      -3.13108730
C        7.12092257      -1.45599616      -3.09901857
C        8.52515888      -3.04030490      -4.93997097
C        5.63624048      -2.24045920      -1.19888008
H        0.98577565       1.75277770       1.10308981
H        0.92660832      -1.59311473       1.15129673
H        0.95219523       0.03773783      -1.76899159
H        5.26893425       0.01218873       2.15451455
H        5.41990471       4.13836813      -0.81910181
H        8.22599697       2.39947987      -4.46838951
H        9.45792770      -1.88706160      -6.38224745
H        7.24178982      -4.33841419      -5.91132784
H        9.98296928      -4.14813805      -3.97838378
H        5.25349522      -4.18581915      -0.71386296
17
Properties=species:S:1:pos:R:3 energy=-1644.300048828125 pbc="F F F"
C        1.51081717      -0.73138070       1.00920820
C        3.75008583      -0.26206723      -0.72962326
C        5.50609493       1.76421058       0.22776869
C        7.15862274       1.15721154       2.45560455
O        5.78711605       1.51096833       4.73950863
C        6.26455545       3.89521694      -1.53462768
O        4.37146568       4.23697376       0.36498171
H        0.26605454      -2.16961336       0.19706064
H        0.40430692       0.99463844       1.28423893
H        2.12356091      -1.39996576       2.86656332
H        3.02764368       0.24647698      -2.60477972
H        4.81109142      -2.02455807      -0.97475851
H        8.82392502       2.38336039       2.52236867
H        7.82388210      -0.79935414       2.38250995
H        4.85767317       3.08866286       4.52451468
H        5.64648294       3.84440207      -3.48584557
H        8.06319714       4.83225632      -1.25712144
18
Properties=species:S:1:pos:R:3 energy=-1784.7099609375 pbc="F F F"
C        3.51271749       0.26155698      -1.37001359
C        3.44066215      -0.24299988       1.41922212
C        0.99329674       0.02486880      -0.03741658
C       -0.64636195       2.30289578       0.38306639
C       -3.26688290       1.33662224      -0.30452937
N       -3.15357494      -1.34433222       0.36966822
C       -0.66932207      -2.24044037      -0.48435572
H        4.12850380       2.11551070      -1.98714149
H        4.11877155      -1.26313078      -2.59729624
H        3.98550797      -2.10458803       2.07843423
H        3.99106383       1.27237153       2.68539524
H       -0.58126086       2.88086867       2.37332606
H       -0.10627820       3.91347170      -0.80050689
H       -4.75559044       2.32887959       0.72669417
H       -3.61515951       1.54555035      -2.33492661
H       -4.55389977      -2.32959771      -0.50580412
H       -0.72854614      -2.71478057      -2.50005102
H       -0.08452745      -3.90415525       0.59373307
16
Properties=species:S:1:pos:R:3 energy=-1565.9000244140625 pbc="F F F"
N        1.76222634      -0.04263222      -0.41203588
C        4.49851179      -0.15002535      -1.00968063
C        4.90378284      -2.22806263      -3.01541710
O        3.23158288      -1.84709394      -5.09814119
C        5.40397406       2.46002650      -1.93865108
C        8.17535210       2.58038330      -2.17978024
C       10.43266773       2.68460155      -2.39721203
H        1.46793926       1.28338861       0.95888484
H        1.22484493      -1.72458291       0.36898792
H        5.53315592      -0.66747016       0.71048033
H        4.48343182      -4.09021759      -2.21362519
H        6.84453154      -2.26801157      -3.72485805
H        1.68939626      -1.16250288      -4.33661890
H        4.81269789       3.91687322      -0.58534265
H        4.51996040       2.94211459      -3.75010490
H       12.43233776       2.78067541      -2.61369920
16
Properties=species:S:1:pos:R:3 energy=-1605.93994140625 pbc="F F F"
C       -0.23270087       2.62242961       1.02559221
C       -2.81185579       1.40661764       0.50754267
C       -3.00812268      -0.94159383      -0.49299175
C       -0.67415982      -2.59555769      -0.95236528
C        1.49785364      -1.56265235       0.51816291
N        3.87815261      -0.34684032       0.09520441
C        1.73790550       1.21418679      -0.41447362
H        0.14123814       2.64907479       3.06207442
H       -0.28166369       4.58579826       0.37014067
H       -4.48900652       2.52327561       0.89678842
H       -4.84816790      -1.74608803      -0.91555339
H       -1.08568549      -4.51455593      -0.29277527
H       -0.27189380      -2.70410371      -2.98060822
H        1.19665015      -1.94371557       2.51834345
H        4.71018028      -0.99216288      -1.52124846
H        1.54940534       1.65687406      -2.41507006
17
Properties=species:S:1:pos:R:3 energy=-1786.199951171875 pbc="F F F"
C        1.73378599      -0.09824686      -0.02821361
C        4.56703329       0.02354599       0.01545796
C        5.80087328       2.24474907       0.02811912
C        8.63221264       2.46010208       0.08991317
C       10.08826542      -0.05079584      -0.10761990
C        8.49237251      -2.38976645       0.00595264
C        5.96093321      -2.32938981       0.06621601
H        1.03299987      -2.04218912      -0.12802894
H        0.98985744       0.91054565      -1.67667842
H        0.94745201       0.76040691       1.68210196
H        4.74421406       4.00510454       0.01109269
H        9.23760509       3.70938134      -1.45030808
H        9.16776085       3.41541553       1.85093009
H       11.49769878      -0.12802894       1.41020811
H       11.15361691      -0.07585361      -1.88668370
H        9.46478748      -4.19694948       0.02656955
H        4.90476513      -4.08993435       0.14110585
16
Properties=species:S:1:pos:R:3 energy=-1500.52001953125 pbc="F F F"
C        7.03460026       8.26966858      -7.00978804
C        8.43620968       6.50475883      -5.30618095
N       10.17591095       7.33631372      -3.80279040
O       11.17640686       5.28163338      -2.44776225
C       13.07412720       6.17522812      -0.72898078
C       15.50484371       6.78067732      -2.16127968
O       15.19198036       8.97487640      -3.69702244
H        7.60794306      10.22695255      -6.68299770
H        5.00839806       8.07105827      -6.65922499
H        7.42076540       7.75152445      -8.97100258
H        7.93626404       4.48235464      -5.41308260
H       13.42153454       4.65862846       0.63326615
H       12.35665417       7.82790709       0.29543978
H       16.03220940       5.21670246      -3.40592909
H       17.05324745       7.14934397      -0.84406507
H       13.44598770       8.88067341      -4.32044315
12
Properties=species:S:1:pos:R:3 energy=-1214.56005859375 pbc="F F F"
N        2.30240464      -0.05242100       1.08434379
C        4.57115316      -0.28255185      -0.11926062
N        5.12797976      -2.31948757      -1.34658110
C        6.44192505       1.90934145      -0.12657386
C        6.76363230       3.04293156       2.39449096
C        7.04453993       3.97450972       4.44331312
H        1.76353025       1.70668721       1.62457871
H        0.86787564      -1.18669128       0.53169334
H        3.70781279      -3.60962248      -1.12930036
H        5.73123693       3.32880926      -1.45641196
H        8.26605892       1.24117208      -0.84255332
H        7.31195498       4.79007769       6.26669073
15
Properties=species:S:1:pos:R:3 energy=-1435.3900146484375 pbc="F F F"
C        4.61183882      -0.78784573      -3.17927527
N        4.53849840       0.11982753      -0.57857746
C        6.20861959       2.29856849      -0.18681833
C        6.48034334       3.08168983       2.56280875
O        6.73035431       5.77736521       2.50386834
N        5.39420414       6.64903927       0.35373783
C        5.07121229       4.70921659      -1.09309316
H        3.36539435      -2.42812800      -3.36520529
H        6.51946068      -1.37883866      -3.72124863
H        3.94266796       0.64496350      -4.51107883
H        5.08425140      -1.31717694       0.58691114
H        8.06074047       2.04642224      -1.07767308
H        8.14437962       2.23836160       3.45402265
H        4.81205511       2.61904693       3.70214367
H        4.14745760       4.84076023      -2.94668770
15
Properties=species:S:1:pos:R:3 energy=-1409.6400146484375 pbc="F F F"
C        4.60469580      -1.74862027      -1.38821173
O        3.86586952       0.60796267      -0.33414137
C        5.97593784       2.27763033       0.09089582
C        6.54026651       4.13137579      -1.98442030
C        5.29556084       5.02984619       0.39722043
N        6.70843315       6.65102339       2.13909435
H        2.91095304      -2.89424777      -1.68280113
H        5.86742973      -2.74783182      -0.09110370
H        5.53969431      -1.46132517      -3.20996451
H        7.54887009       1.57024908       1.20110989
H        5.39376974       4.06374264      -3.68001485
H        8.49528313       4.63279581      -2.32090497
H        3.29893279       5.50214529       0.25076666
H        8.54073048       6.08633566       2.30973673
H        5.95173025       6.53849030       3.90865278
17
Properties=species:S:1:pos:R:3 energy=-1730.77001953125 pbc="F F F"
C        1.92591441       0.06122713       0.06557350
C        4.73215771       0.00000000      -0.02477431
C        6.21823835      -2.04577971      -0.13277216
C        8.95140553      -1.36404216      -0.13734530
O       10.00258541      -1.92283416       2.26054716
C        8.91994190       1.48519242      -0.62086952
C        6.25620270       2.38190532       0.07305681
H        1.12096667      -1.84357905      -0.00321253
H        1.17726159       1.12678695      -1.54124177
H        1.28066742       0.96410048       1.81084895
H        5.56140709      -3.98023558      -0.16892262
H       10.01789188      -2.36761904      -1.59525013
H        8.80727673      -1.33843637       3.52840209
H        9.24437046       1.85111904      -2.63713169
H       10.36460018       2.50709963       0.45179573
H        5.58332825       3.79848170      -1.27475262
H        6.20886517       3.18851590       1.97848654
18
Properties=species:S:1:pos:R:3 energy=-1716.050048828125 pbc="F F F"
C        1.85629690       0.13683507       0.30207273
C        4.66195440      -0.26484510      -0.10624041
O        6.12944031       1.74544549       1.07283533
C        7.86199760      -0.11362923       2.15353179
C       10.42501450       0.07617486       0.86819690
C        5.95509386      -2.25784469       1.58153069
N        7.05790043      -4.29183245       0.05221313
H        0.78348047      -1.47468555      -0.42431912
H        1.21116328       1.83023751      -0.69441766
H        1.40125084       0.36078653       2.30688310
H        5.12244272      -0.36350772      -2.12841749
H        8.06382084       0.20928717       4.19347239
H       10.26064587       0.00651956      -1.19364548
H       11.66499615      -1.46264803       1.47547925
H       11.34721947       1.86107790       1.36203897
H        4.87434053      -2.89468241       3.22443962
H        7.97269773      -3.70811510      -1.54052365
H        5.76925850      -5.59740639      -0.53507596
15
Properties=species:S:1:pos:R:3 energy=-1484.1400146484375 pbc="F F F"
C        3.52260065      -0.15066786       3.01781702
C        5.22297621      -0.38115776       1.16586649
C        6.06190109       1.86406362      -0.26766080
N        7.70898676       1.67416513      -2.06575418
N        8.21084118       3.93620515      -3.12609839
C        8.78153801       3.45940828      -5.79106569
C       10.86029434       3.87533689      -3.92093611
H        2.90783501      -1.80181611       4.06884480
H        2.70310211       1.65683627       3.53858781
H        6.04523373      -2.18176436       0.63993686
H        5.20627117       3.69012499       0.28574550
H        8.31447411       4.98180962      -7.07318830
H        8.47804832       1.57315922      -6.52601814
H       12.00809479       2.27963328      -3.34989858
H       11.81615543       5.68251991      -3.92276907
19
Properties=species:S:1:pos:R:3 energy=-1917.0 pbc="F F F"
C       -1.73983312       0.00224877      -2.18029046
C       -1.14190483       1.98496830      -0.07810238
C       -2.27458787      -0.00274010       1.76867032
C       -1.14222610      -1.98623443      -0.08295897
C        1.67896497      -2.41257548       0.41290516
C        3.17730999      -0.00092597      -0.16191174
C        1.68059015       2.40919304       0.41880110
H       -3.71467257       0.00330702      -2.81304622
H       -0.52749813       0.00408181      -3.85311389
H       -2.20721912       3.75369525      -0.18991747
H       -1.54483223      -0.00529123       3.70231366
H       -4.34637022      -0.00247554       1.85478508
H       -2.20831513      -3.75422454      -0.19936611
H        1.96660018      -2.98040056       2.38542008
H        2.38980436      -3.95782351      -0.76960987
H        3.64176679       0.00117163      -2.18403196
H        4.99116373      -0.00270231       0.83467311
H        2.39101386       3.95699215      -0.75972658
H        1.96760178       2.97208571       2.39262009
15
Properties=species:S:1:pos:R:3 energy=-1556.6600341796875 pbc="F F F"
C        1.88972616       0.00000000       0.00000000
C        4.61849070       0.00000000       0.00000000
C        6.86756706       0.00000000       0.00000000
C        9.52452183       0.00000000       0.00000000
C       10.75097370      -2.21729136      -0.14369477
C       10.92307091       2.48391271       0.09310681
O       10.72287273       3.58467817       2.53627706
H        1.14523077       1.92918360       0.02271451
H        1.14515519      -0.98418826       1.65936852
H        1.14511740      -0.94491976      -1.68202639
H        9.74282360      -4.00351715      -0.23013085
H       12.80023003      -2.30540919      -0.15728191
H       10.14890671       3.80999017      -1.29417896
H       12.93445683       2.24907637      -0.33060759
H        8.96992493       3.41462183       3.06152630
20
Properties=species:S:1:pos:R:3 energy=-1909.7900390625 pbc="F F F"
C        3.56763291      -1.14473939      -2.53499198
C        4.49365520      -0.14528215      -0.00340151
C        6.02386093       2.30249906      -0.27467170
C        8.50977707       1.93691254      -1.71195960
C        4.48819399       4.67357635      -1.06168592
N        5.74002409       6.11932993       0.97194284
C        6.37085247       3.72712564       2.26729345
H        2.37153077      -2.80790615      -2.24714899
H        5.14222813      -1.70938957      -3.74972677
H        2.45755100       0.27710944      -3.54626012
H        5.63949060      -1.59710205       0.93150270
H        2.84207249       0.17383590       1.20876336
H        9.66186714       3.65722489      -1.71097696
H        8.16590309       1.43934774      -3.68955803
H        9.64015484       0.43108433      -0.85311687
H        2.43872929       4.52124548      -0.79391176
H        4.83664083       5.39314604      -2.96936440
H        7.29679966       7.08127642       0.36473605
H        8.26456642       3.67226696       3.09850836
H        5.00898361       3.23764896       3.75106859
14
Properties=species:S:1:pos:R:3 energy=-1426.3499755859375 pbc="F F F"
C        1.94670141      -0.88601702      -0.61444443
C        4.60407209      -1.45017588       0.21760197
O        5.24364996      -3.51207495       1.06004190
N        6.22235775       0.56039828       0.00786126
C        8.83720970       0.36898792       0.78036243
C       10.26867771       2.71185160      -0.01804688
O        9.26613998       4.57368517      -0.98450953
H        0.89998209      -0.05485875       0.95984858
H        1.02666926      -2.63870025      -1.20725155
H        1.94071090       0.41995385      -2.21630859
H        5.60392618       2.26591396      -0.62109631
H        9.69548607      -1.29202461      -0.10074130
H        8.92090607       0.18464515       2.83746147
H       12.31698895       2.67668366       0.36573759
18
Properties=species:S:1:pos:R:3 energy=-1712.06005859375 pbc="F F F"
C        2.29739666       0.27174261       0.39397010
C        5.07964039      -0.14428060      -0.29101783
C        5.38022041      -1.75485635      -2.69900131
N        4.31031418      -4.28797770      -2.42194867
C        6.35919285       2.37462997      -0.64528477
C        7.80625057       3.60395336       1.47736895
O        9.06596088       2.28416872      -0.52659106
H        2.12921119       1.48260355       2.06429911
H        1.34597635      -1.51561701       0.81505775
H        1.27773833       1.19846427      -1.15125895
H        5.97994375      -1.14717710       1.28867984
H        7.38795996      -1.93421030      -3.17528796
H        4.46625423      -0.81401843      -4.30188608
H        5.22649097      -5.21262074      -1.00026989
H        4.66586590      -5.29848957      -4.02371836
H        5.50815487       3.55689931      -2.08179784
H        7.80186653       2.72787642       3.32724071
H        7.95465088       5.64561367       1.49978113
19
Properties=species:S:1:pos:R:3 energy=-1777.9599609375 pbc="F F F"
C        5.26500368      -2.44037342       1.81561112
C        4.64902878      -0.45187131      -0.19356465
N        1.88777971      -0.13014545      -0.33608779
C        5.94213057       2.11594534       0.35479608
N        8.71407509       1.87903023       0.40026289
C        9.94774532       2.81523848      -1.88299870
C        9.99780369       4.31794882       0.53447121
H        7.29196167      -2.86422014       1.85268748
H        4.27817011      -4.21883249       1.42770696
H        4.71169186      -1.80262864       3.70533729
H        5.29274511      -1.14661026      -2.03680348
H        1.21709704       0.39349768       1.39340842
H        1.07510304      -1.83605790      -0.71492118
H        5.31683874       2.80747151       2.20939231
H        5.29153538       3.51239610      -1.03929269
H        8.79516315       3.49096656      -3.43429375
H       11.65802288       1.83494294      -2.43803024
H       11.73482132       4.34472609       1.61478984
H        8.86255074       6.01533842       0.65974116
17
Properties=species:S:1:pos:R:3 energy=-1726.010009765625 pbc="F F F"
C        1.67956972      -0.02046573       0.33552086
C        4.50382233       0.05593589      -0.11663390
C        6.02068615       2.02966046       1.44650972
C        7.96001768      -0.01708312       2.27205563
C       10.50425053       0.02288458       0.95072120
C        6.07416582      -1.99277294       1.24018943
O        5.90932465      -4.27457952       1.41268373
H        0.83656287      -1.65961421      -0.60412657
H        0.77703649       1.67843580      -0.42571750
H        1.22909677      -0.13745868       2.35151839
H        4.95365238       0.12286999      -2.14066291
H        4.97455263       2.84294176       3.04083395
H        6.79587078       3.59206700       0.33323431
H        8.17733669      -0.13371702       4.32936239
H       10.29594612       0.10608923      -1.10698271
H       11.59307289      -1.67371154       1.41463006
H       11.60626316       1.66864705       1.54692984
16
Properties=species:S:1:pos:R:3 energy=-1582.800048828125 pbc="F F F"
O        1.98234165       0.26985291       0.39370555
C        4.63666964      -0.03187968       0.09543117
C        5.22983599      -2.69907689      -0.79187083
C        5.20523167      -2.50804448      -3.67287183
N        6.12377071       0.05274226      -4.30413485
C        4.12833357       1.95308864      -4.42545509
C        5.59561157       1.59048796      -2.01866221
H        1.68984985       2.03755951       0.80895394
H        5.55656958       0.38495612       1.89983618
H        3.88463449      -4.10964394      -0.10272551
H        7.13451004      -3.22965527      -0.17094463
H        6.45904636      -3.93159413      -4.50102520
H        3.30547118      -2.84946132      -4.42915916
H        4.54790926       3.60281968      -5.56427956
H        2.18278480       1.32284606      -4.53371763
H        7.05652094       2.91648984      -1.49199545
20
Properties=species:S:1:pos:R:3 energy=-1905.7099609375 pbc="F F F"
C        2.17764473      -0.53870422      -0.08150389
N        4.92834902      -0.42745605       0.22829781
C        6.10262489      -2.52125382      -1.14802754
C        5.87691593       2.05254483      -0.62844729
C        8.67885113       2.51628375       0.00574477
C        9.51586723       5.11503506      -0.79317474
C       10.44995880       6.85681438       0.78865832
H        1.25721586       0.94539219       1.03052437
H        1.43698549      -2.34099269       0.61854517
H        1.60473657      -0.32323766      -2.06104875
H        5.30155087      -4.33181906      -0.54074514
H        8.12837315      -2.63817096      -0.74918193
H        5.84080315      -2.35427761      -3.19639611
H        4.77528143       3.54172468       0.31065208
H        5.56671762       2.28195763      -2.66783977
H        9.88275719       1.15067315      -0.97885925
H        8.98409843       2.24439001       2.03876877
H        9.36625767       5.56565905      -2.79420567
H       10.65274525       6.49075556       2.79620886
H       11.03970432       8.69600964       0.09594139
14
Properties=species:S:1:pos:R:3 energy=-1353.4599609375 pbc="F F F"
O        1.50100946       3.44143701      -0.04726205
N        3.82745123       3.06146979      -1.25237823
C        5.53073692       2.62751293       0.44977373
C        8.31719494       2.14848638      -0.29653582
C        9.70315742       4.19190407      -1.81230402
C       11.65885448       4.09443188       0.29581773
O       10.08287907       2.44878268       1.80155146
H        0.36297861       3.74933004      -1.46572828
H        5.08024502       2.60001755       2.48706865
H        8.54554939       0.25258079      -1.10991180
H        8.71396160       5.99901104      -1.97351658
H       10.38172054       3.59690475      -3.66992378
H       13.44766903       3.18146729      -0.19278987
H       12.01960278       5.89226055       1.24810743
14
Properties=species:S:1:pos:R:3 energy=-1384.3800048828125 pbc="F F F"
C        0.42044517       1.20573974       1.49951661
C        2.10912323       0.13768545      -0.50259155
N        4.43301392      -0.43597871       0.00427078
N        5.71521235      -1.37339628      -2.00789070
C        8.32388496      -2.19805384      -1.49645519
C        9.55742264      -3.20722437      -3.78026485
N       10.53745270      -3.96050692      -5.59638596
H       -1.20916021      -0.04136610       1.73388040
H       -0.24929267       3.06126189       0.88762325
H        1.42209446       1.38603854       3.29607916
H        1.26638103      -0.13139266      -2.39520907
H        5.73991108      -0.12389044      -3.48590231
H        8.30360794      -3.65913343      -0.02906399
H        9.42223072      -0.59813613      -0.77265233
18
Properties=species:S:1:pos:R:3 energy=-1623.93994140625 pbc="F F F"
C        1.93972826      -0.18035546       0.05752326
N        4.69001675      -0.06447746       0.06529004
C        5.56412840       2.56675839      -0.00508336
C        8.47632885       2.69611001      -0.00041574
N        9.34756851       5.32891417      -0.06081139
C       12.09806442       5.44808054      -0.07322688
H        1.33305061      -2.15704679       0.12200072
H        1.14781964       0.67200553      -1.65422845
H        1.14445591       0.76790911       1.71636271
H        5.36213589      -0.99180388      -1.48485231
H        4.83866262       3.58562303       1.64908838
H        4.84006119       3.51001501      -1.70438182
H        9.20052814       1.68395388      -1.65840471
H        9.20153046       1.74803448       1.69481981
H        8.68629646       6.24492121       1.50097167
H       12.87990093       4.52394772      -1.75164390
H       12.90505314       4.57340193       1.61987329
H       12.70135975       7.42615128      -0.11557565
16
Properties=species:S:1:pos:R:3 energy=-1607.77001953125 pbc="F F F"
C       -1.93761182      -0.00003779      -2.25484014
C       -0.99902260       1.91769409      -0.11780553
C       -2.55500412      -0.00015118       1.62992656
C       -1.00017536      -1.91739178      -0.11791891
C        1.84195387      -1.49583161       0.43654564
N        3.50944829      -0.00079368      -1.10913694
C        1.84036648       1.49583161       0.43675351
H       -3.96252894       0.00018897      -2.69125342
H       -0.88815236       0.00013228      -4.03293991
H       -1.65691185       3.86757016      -0.21814999
H       -2.06050062      -0.00003779       3.63685346
H       -4.61586380       0.00011338       1.43581390
H       -1.65736544      -3.86753249      -0.21839565
H        2.49090481      -2.42100382       2.13973689
H        2.99107742      -0.00005669      -2.96348739
H        2.49152827       2.42038012       2.14015269
16
Properties=species:S:1:pos:R:3 energy=-1626.9599609375 pbc="F F F"
C        2.00256157       0.01840593       0.27918813
C        4.52827501       0.00512116       0.08016218
C        6.16426754       2.31807041       0.06744432
C        8.30340004       1.50987232      -1.67546904
C        8.71868610      -1.26301742      -1.02130246
C        6.09243917      -2.31066275      -0.43862432
H        0.92044783      -1.72070909       0.16438727
H        0.96570677       1.76273656       0.54410887
H        6.88113546       2.68367577       1.97468817
H        5.20092297       4.00676727      -0.63343620
H        7.72862101       1.69854259      -3.65811300
H       10.01086235       2.64227176      -1.39492023
H        9.63832092      -2.29210544      -2.56167507
H        9.93417645      -1.42334175       0.65161538
H        5.34637547      -3.35471749      -2.06097317
H        6.16247272      -3.56821871       1.20454919
13
Properties=species:S:1:pos:R:3 energy=-1325.6800537109375 pbc="F F F"
C       -1.90140462       0.00086927      -2.44878268
C       -1.04783428       1.85117567      -0.24812104
O       -2.57953286       0.00034015       1.38435662
C       -1.04715395      -1.85110009      -0.24855568
C        1.73720634      -1.47255015       0.41095874
O        3.27253318       0.00077479      -1.22977710
C        1.73941731       1.47202110       0.41105324
H       -3.91477561       0.00088817      -2.91603637
H       -0.75269681       0.00083148      -4.16212177
H       -1.84350348       3.75265598      -0.23292765
H       -1.84386253      -3.75174880      -0.23404258
H        2.39197755      -2.41376615       2.09644318
H        2.39212871       2.41342592       2.09708571
18
Properties=species:S:1:pos:R:3 energy=-1767.7099609375 pbc="F F F"
N        1.52555704      -0.09754767      -1.06565440
C        4.16036415      -0.01744217      -0.15752757
C        6.08454037      -1.38008595      -1.78615022
C        6.01562166       1.45113957      -1.77375364
C        4.49439240      -0.02481210       2.75688362
C        2.87495375       1.52413976       4.52767038
C        2.66477847      -1.30413783       4.53710032
H        1.44864511      -0.03709532      -2.98642874
H        0.58135533       1.46045589      -0.44716591
H        5.43154526      -2.36334825      -3.45933270
H        7.64961147      -2.31151295      -0.84867603
H        7.54025316       2.44118595      -0.82879609
H        5.33443213       2.40361834      -3.45277524
H        6.47102690      -0.16845019       3.33428955
H        1.31148887       2.59472632       3.75641656
H        3.79606295       2.42423511       6.12021828
H        3.44379902      -2.32889843       6.12919426
H        0.97695065      -2.15183115       3.74435997
16
Properties=species:S:1:pos:R:3 energy=-1570.6199951171875 pbc="F F F"
O        1.89579213       0.14008540       0.07390719
C        4.57483816       0.01339816       0.00217319
C        5.68561888      -2.02901793       1.72598135
N        7.19851494      -0.48316517       3.53448701
C        8.44477081       1.49059713       1.82254636
C        5.68350267       2.30166745       1.31736588
C        5.40272713       1.69937408       4.16631699
H        1.25167894      -1.47782254      -0.51419449
H        5.21303654      -0.15321900      -1.95958936
H        6.92713118      -3.31554341       0.68396747
H        4.24234056      -3.13709664       2.71101999
H        9.52013779       0.73423421       0.22255304
H        9.64204407       2.86000609       2.81843209
H        5.29990721       4.20322323       0.63404089
H        6.18068933       3.09926414       5.48409843
H        3.52849674       1.14432371       4.84828138
21
Properties=species:S:1:pos:R:3 energy=-1928.5 pbc="F F F"
C        1.97427249      -0.12680063      -0.03703863
C        4.84552240      -0.07938740       0.08891162
N        5.75128698       2.52688503      -0.05827915
C        8.51240349       2.63131142       0.05739098
C        9.40420341       5.38233709       0.00209760
C       12.28881359       5.52138281       0.04760220
N       13.13612843       8.14470100       0.06668843
H        1.29140103      -2.07633662       0.06273891
H        1.29077744       0.69857508      -1.80625689
H        1.13704824       0.92258322       1.53687644
H        5.60566473      -1.19260621      -1.48471999
H        5.46102524      -0.96364695       1.85975504
H        5.00168943       3.55550075       1.38955343
H        9.31822109       1.61486542      -1.55802250
H        9.19245911       1.72437513       1.79178166
H        8.62884903       6.40224075       1.63313913
H        8.68608856       6.31945229      -1.70364475
H       13.07605457       4.56085396      -1.61019790
H       13.02215958       4.56890440       1.73310566
H       12.48113060       9.04836750      -1.50395739
H       15.05777264       8.19899273      -0.04215979
18
Properties=species:S:1:pos:R:3 energy=-1668.510009765625 pbc="F F F"
C        1.84314442      -0.21866021      -0.05219423
C        4.74175739      -0.03369382      -0.12986198
N        5.70489407      -1.46697545       2.08826065
C        5.77402020      -1.27703917      -2.56386709
O        5.27063513      -3.92794704      -2.54538560
C        5.61292124       2.75378442      -0.00394953
O        4.94080257       3.88820601       2.35176420
H        0.99972183       0.81876165      -1.63400841
H        1.06384027       0.56805170       1.69767332
H        1.19487381      -2.18206668      -0.17995863
H        5.16567993      -0.48615095       3.67196465
H        7.63283062      -1.33257818       2.12068844
H        7.82526159      -1.03713834      -2.71360898
H        4.90546465      -0.46379548      -4.25719404
H        5.36814499      -4.40674686      -0.75696760
H        4.78627968       3.87754798      -1.53593159
H        7.67198563       2.88190794      -0.17056668
H        3.12849832       4.19362354       2.32483554
16
Properties=species:S:1:pos:R:3 energy=-1596.3699951171875 pbc="F F F"
C        1.87908697       0.02277120       0.14337352
C        4.67308474       0.07751656      -0.09871929
C        6.22853756      -1.87647915      -0.37159574
O        8.77225971      -1.33480811      -0.46604425
C        8.84616661       1.39240694      -0.57309723
C        6.19818830       2.42448092       0.08267552
N        5.30952549       4.41179228      -1.60611606
H        1.15694702      -1.91693819       0.12235977
H        0.98809999       1.04227841      -1.42022371
H        1.29007828       0.89826244       1.92222941
H        5.77740288      -3.86054039      -0.47025836
H        9.44133663       1.92353332      -2.48788118
H       10.27984524       2.08735371       0.74908745
H        6.17173195       3.12500238       2.03147459
H        5.34061193       3.75422454      -3.41728616
H        6.54376268       5.88744164      -1.56010115
14
Properties=species:S:1:pos:R:3 energy=-1448.8800048828125 pbc="F F F"
C        1.77071118       0.10539003      -0.01753666
C        4.58460808       0.11166392      -0.00462983
C        6.07652760       2.25962114       0.01296352
S        9.18474960       1.40162873       0.02235546
N        8.66503716      -1.67720759       0.00415740
C        6.18027353      -2.10203695      -0.00878723
C        5.32674122      -4.78525877      -0.02685301
H        1.01155150       2.03011394      -0.00574477
H        1.04335558      -0.87641716       1.65162063
H        1.05902147      -0.85005552      -1.70857704
H        5.51212311       4.22193146       0.02040904
H        3.26442623      -4.93989515      -0.01740438
H        6.04277706      -5.78089905       1.63992321
H        6.02584553      -5.75187302      -1.71781778
15
Properties=species:S:1:pos:R:3 energy=-1423.760009765625 pbc="F F F"
C        4.10771656       0.20732185      -2.30540919
O        4.46069860       1.07820213       0.22727737
N        5.45405197       3.54236722       0.10136491
C        3.83412194       5.58296919       0.25305322
C        1.31107306       5.59871054       0.43049851
C        8.05319977       3.61850429       0.27332997
N        9.61475658       1.75277770       0.48860759
H        3.16901398      -1.63206196      -2.21923757
H        5.92843008      -0.03509222      -3.25565791
H        2.90501928       1.49794817      -3.38686156
H        4.83439207       7.37921047       0.23013085
H        0.23330559       3.85532475       0.49246264
H        0.27667481       7.36426258       0.54635763
H        8.82025909       5.55828905       0.20395814
H        8.53857613       0.13883817       0.58127975
13
Properties=species:S:1:pos:R:3 energy=-1306.4599609375 pbc="F F F"
C        3.61030293      -1.24878776      -2.24956775
C        3.90842605       0.56011480      -0.50467026
C        6.11694908       2.20444107      -0.24719508
C        6.63322210       4.15303230      -2.25716448
C        5.70462990       4.96861935       0.29475948
H        1.91253507      -2.39745784      -2.29813385
H        5.05373240      -1.60946083      -3.66104198
H        2.40074587       0.82482767       0.87284559
H        7.73978901       1.31685567       0.64048487
H        5.34238815       4.31254387      -3.84079289
H        8.58835220       4.53239489      -2.73649359
H        7.03119850       5.90458155       1.54451096
H        3.78973246       5.68605375       0.42632222
17
Properties=species:S:1:pos:R:3 energy=-1719.68994140625 pbc="F F F"
C        5.92897797      -3.25327682      -2.30385971
C        5.44509459      -1.62429523      -0.02857266
C        4.24254847      -2.53072119       2.01590323
C        6.29195642       1.10390246      -0.17625475
C        9.16010761       1.37434113      -0.30033419
C        9.98436832       4.10253859      -0.32248175
O        8.54600334       5.91930246      -0.26873794
H        5.15653372      -2.36236548      -4.00327158
H        5.05076551      -5.11843681      -2.12263489
H        7.95839262      -3.54308534      -2.57337236
H        3.59958816      -4.47795153       2.11167455
H        3.85137534      -1.34920776       3.64881539
H        5.57743216       2.16281056       1.45962441
H        5.42249346       1.98793519      -1.83885467
H        9.91412735       0.49960580      -2.01801968
H       10.05338097       0.46693242       1.33220029
H       12.04764652       4.39514399      -0.40421242
16
Properties=species:S:1:pos:R:3 energy=-1611.9599609375 pbc="F F F"
C        4.88112497      -1.04877913       2.37689757
C        4.46905136       0.34323096      -0.10932066
C        5.52472782       3.00201893      -0.06918287
C        3.98059464       4.97717953       0.34315535
C        8.20018291       3.46209168      -0.53235477
C        9.97554302       1.72594357      -1.00983191
H        4.03825045      -2.93585968       2.28112626
H        3.99588251      -0.03796460       3.95145512
H        6.89126444      -1.27380764       2.80739594
H        2.42880821       0.40099987      -0.48456359
H        5.27458477      -0.74217105      -1.67970192
H        1.97453701       4.70844173       0.68209666
H        4.65864754       6.91316605       0.36804307
H        8.80315685       5.43194199      -0.48972252
H        9.58593845      -0.28226840      -1.09779859
H       11.91940975       2.30314159      -1.33197343
17
Properties=species:S:1:pos:R:3 energy=-1666.6500244140625 pbc="F F F"
C        2.19792151      -0.60221791       0.10350030
N        4.92511749      -0.29523191      -0.15922832
C        5.62794447       2.37519670      -0.05671068
C        8.50633717       2.67413259      -0.16177945
C        9.90660572       1.40954673       2.03128552
C        9.32370090       2.60494971       4.46842766
N        8.88133526       3.57812095       6.38228559
H        1.72450733      -2.61456847       0.04748882
H        1.18005836       0.33591771      -1.43422651
H        1.53016794       0.14367588       1.91404688
H        5.47039795      -1.04473507      -1.85045767
H        4.89816999       3.25274777       1.67206752
H        4.79483986       3.38512301      -1.66341257
H        8.95775509       4.69842625      -0.20017868
H        9.20990181       1.88110900      -1.94469821
H       11.94391918       1.56507123       1.68542778
H        9.48107719      -0.61448222       2.11101317
20
Properties=species:S:1:pos:R:3 energy=-1847.52001953125 pbc="F F F"
C        4.91856050      -3.30292010       0.15556225
N        7.12746096      -1.72152162      -0.29727283
C        6.45844126       0.96640593      -0.18105467
C        8.81018639       2.57157707      -0.68067938
C        8.26050282       5.38878107      -0.42019951
O        6.44098043       6.12732363      -2.26914525
C        5.90649033       8.75767136      -2.13648653
H        5.47092724      -5.29389763       0.07379381
H        3.45496750      -2.98905540      -1.27208805
H        4.12173843      -2.95473790       2.03221154
H        7.83652401      -2.11747599      -2.04621434
H        5.70321226       1.41820168       1.69474423
H        4.99617147       1.39571393      -1.58502674
H        9.50156212       2.18679118      -2.59708834
H       10.31535339       2.05821419       0.64649421
H       10.00989819       6.45796919      -0.71690542
H        7.53849554       5.80954742       1.47561157
H        4.49458122       9.20648098      -3.57511616
H        7.61253500       9.86106300      -2.51745534
H        5.13916683       9.24784756      -0.28066212
19
Properties=species:S:1:pos:R:3 energy=-1917.5999755859375 pbc="F F F"
C       -3.25722647       1.59288800       1.05189717
C       -2.18074393      -0.48571631      -0.56334627
C       -0.66438991      -2.61103463       0.53796726
C        2.01921010      -2.52779222      -0.52885878
C        3.34572244       0.03907954      -0.18007201
C        1.63102257       2.19395304       0.71242678
C       -0.92143047       2.06771946      -0.50965911
H       -5.00671577       2.46724534       0.44172350
H       -3.07594514       1.45034587       3.08919191
H       -3.16808796      -1.01795769      -2.27504134
H       -0.60157543      -2.48606706       2.60627246
H       -1.55395961      -4.42133570       0.07027891
H        3.16572595      -4.02970886       0.31917474
H        1.93645906      -2.94045162      -2.56059790
H        4.90850687      -0.16869585       1.16569650
H        4.22121334       0.56625646      -1.98468482
H        1.43985796       2.09323072       2.77496839
H        2.52397490       4.01648045       0.30048534
H       -1.06601346       3.22784114      -2.19045711
16
Properties=species:S:1:pos:R:3 energy=-1589.9200439453125 pbc="F F F"
N        4.36976480      -0.80315250      -2.82143664
C        4.53963232       0.24785648      -0.25883579
C        6.35089731       2.51943946      -0.02834589
O        6.54669142       3.23900938       2.60152936
C        6.05315208       5.90371227       2.81739259
C        5.30856180       6.75524187       0.25938380
C        5.46881056       4.83620596      -1.35922337
H        3.17528796      -2.31466889      -2.79314756
H        6.09236383      -1.49337494      -3.33918381
H        5.15694904      -1.24408233       1.04059660
H        2.64247966       0.79729438       0.37070757
H        8.24687862       1.99290514      -0.67589837
H        7.76853180       6.85158014       3.47350550
H        4.53889561       6.18579197       4.19456863
H        4.72919083       8.65483189      -0.20342901
H        5.04297972       4.90880919      -3.35420728
17
Properties=species:S:1:pos:R:3 energy=-1717.3299560546875 pbc="F F F"
C        3.59996605       0.29744288      -1.38327956
O        3.09714770      -0.15953068       1.23701477
C        0.93874037       0.10047674      -0.38178137
C       -0.67937547       2.35588384       0.17952399
C       -3.36964631       1.37076950      -0.23423156
C       -3.19605613      -1.42840624       0.44247937
C       -0.63729125      -2.23582959      -0.63606292
H        4.32424164       2.14003921      -1.89938259
H        4.35271978      -1.25383329      -2.48515987
H       -0.43590313       2.96552825       2.14332747
H       -0.27342448       3.95510221      -1.06709051
H       -4.76050377       2.38354945       0.91081017
H       -3.89803267       1.57746780      -2.22740126
H       -4.76010656      -2.53493524      -0.33179811
H       -3.19739771      -1.65239549       2.50273442
H       -0.82890946      -2.73634243      -2.63639474
H        0.13120368      -3.86490560       0.38161129
17
Properties=species:S:1:pos:R:3 energy=-1692.0400390625 pbc="F F F"
C        1.85981178      -0.08891162       0.37773734
C        4.71286345      -0.08698409      -0.12933286
C        5.30614328      -1.44694436      -2.62261868
O        4.46302271      -3.99979424      -2.53794003
C        5.70661402       2.64191270      -0.14639708
C        8.48623085       2.74747276      -0.15792441
C       10.75276852       2.84360313      -0.17200287
H        1.43233681       0.85734987       2.16813946
H        1.12187374      -2.01752830       0.50450021
H        0.83249992       0.89412391      -1.12659800
H        5.60587263      -1.14018512       1.42080951
H        7.33593559      -1.47209668      -3.01862955
H        4.36143112      -0.52118647      -4.21420288
H        5.40015697      -4.84100580      -1.19880450
H        5.02391243       3.64012265       1.53757572
H        4.96007776       3.66504836      -1.78684950
H       12.76528931       2.93485808      -0.18706399
16
Properties=species:S:1:pos:R:3 energy=-1646.9100341796875 pbc="F F F"
C        1.76507986       0.00151178      -0.30318767
C        4.55828381       0.04438967      -0.02660734
C        6.10088634       2.06915569       0.02158067
C        8.78282356       1.42855740       0.30968833
N       10.04854298      -0.01751776      -1.65281117
C        8.83070946      -1.43978238       0.37135008
C        6.11689234      -2.34989333       0.18094128
H        1.11431479      -1.86788094      -0.91528887
H        1.13959932       1.37968910      -1.70417392
H        0.86211199       0.43529841       1.51518238
H        5.46162987       4.01122713      -0.10608923
H        9.91289902       2.45210862       1.67146277
H        8.98332310      -0.03569693      -3.26230979
H       10.00934982      -2.41346383       1.71881926
H        5.58999872      -3.41157937       1.87844443
H        5.86899805      -3.54907584      -1.48729002
15
Properties=species:S:1:pos:R:3 energy=-1685.2900390625 pbc="F F F"
C        1.85355675       0.01704533       0.11204186
C        4.68325138       0.07269777      -0.05090922
C        5.99663019       2.36786461      -0.15025212
C        8.62962341       2.39313030      -0.32000622
C        9.96934509       0.12744313      -0.39786294
C        8.67941761      -2.16624975      -0.30878124
C        6.04718018      -2.19503021      -0.13832796
H        1.07088888       1.91697598       0.34729388
H        1.25353098      -1.11525965       1.73531663
H        1.06007969      -0.79504555      -1.61615050
H        4.97872925       4.15210629      -0.09607368
H        9.63342667       4.18264437      -0.39285517
H       12.01803493       0.14930727      -0.53069180
H        9.72101593      -3.93423963      -0.37335318
H        5.06117773      -3.99716759      -0.07456859
13
Properties=species:S:1:pos:R:3 energy=-1350.1700439453125 pbc="F F F"
O        6.12171125      -1.40950894      -1.45552373
C        4.22030640       0.05397058      -0.25248632
C        5.13926125       2.68607569      -0.13929172
C        4.03146601       4.89287901       0.68859732
C        5.88095999       6.76794100       0.31093553
N        8.00431252       5.83734512      -0.67824161
N        7.50591660       3.36070776      -0.93809783
H        5.46127081      -3.12207317      -1.55881619
H        3.89653969      -0.69553262       1.64608371
H        2.47658062      -0.07129937      -1.35521710
H        2.15464687       5.12459707       1.45713007
H        5.76795435       8.76885796       0.71620619
H        8.83989334       2.19537044      -1.67794454
19
Properties=species:S:1:pos:R:3 energy=-1781.9200439453125 pbc="F F F"
C        3.44298649      -1.31063843      -1.30855978
N        3.32901716       1.13944817      -0.06124602
C        5.76226616       2.46514773      -0.09664059
C        6.11328316       4.63678312      -1.89908028
C        5.86283731       5.13748503       0.89404833
C        8.08196163       5.97174263       2.42347932
N        8.07062340       8.71687222       2.53620148
H        1.56378615      -2.17295837      -1.31549501
H        4.73285675      -2.59247756      -0.32146132
H        4.05714750      -1.12083435      -3.27432847
H        2.71820092       0.89930177       1.75122809
H        7.40950298       1.29397106       0.28383687
H        4.53906536       5.16420555      -3.10024691
H        7.94603395       4.85559464      -2.78328323
H        4.10781097       5.95390368       1.56987107
H        9.86567402       5.30999804       1.60707974
H        7.93393946       5.20137691       4.33728075
H        8.22314358       9.42302513       0.75180864
H        9.62671852       9.31922245       3.49355555
12
Properties=species:S:1:pos:R:3 energy=-1224.4599609375 pbc="F F F"
N       10.19871998      -3.26786566      -1.06000412
C        8.63593483      -1.81054664      -0.55858415
C        6.66880560       0.03159622       0.08583136
C        8.03647614       2.50804448       0.24863127
C        8.35570717       4.16546679      -2.05129766
N        6.58342791       4.84707212      -0.04924626
H        5.80234718      -0.42439470       1.90798092
H        5.18191242       0.05366822      -1.35376203
H        9.47894192       2.54627371       1.70644164
H        7.51886129       3.58361983      -3.82692218
H       10.05064106       5.30253363      -2.21179223
H        7.30806208       6.26602936       1.04634142
14
Properties=species:S:1:pos:R:3 energy=-1385.9300537109375 pbc="F F F"
C        1.76358688      -0.01277455       0.01277455
C        4.62689972      -0.09095252       0.00591484
O        5.54761219       2.43821907       0.01473986
C        8.24062347       2.51700187       0.00725655
C        9.07340622       5.15963268       0.01844373
C        9.75520134       7.32501316       0.02774118
H        0.97371918      -1.92239952       0.00623610
H        1.05854905       1.00758302      -1.64372158
H        1.06607008       0.99312669       1.68123269
H        5.29858398      -1.07553768      -1.68690181
H        5.30631304      -1.09001291       1.68710971
H        8.95597935       1.55787134      -1.68270659
H        8.96595669       1.54054248       1.68295228
H       10.34103489       9.25100327       0.03618826
15
Properties=species:S:1:pos:R:3 energy=-1456.6400146484375 pbc="F F F"
C        6.05090284      -2.11458468      -1.50104725
O        4.71547127      -0.12162277      -0.28495181
C        6.00432110       2.07469249       0.15063007
C        8.39495754       2.67751527      -0.43444803
N        9.58019352       4.92693186       0.09501543
C       11.97942734       5.70483732      -0.45032173
N       13.72589302       4.59006929      -1.71539891
H        4.77524328      -3.73375869      -1.65676069
H        7.68940926      -2.69934154      -0.38129005
H        6.62143040      -1.56144285      -3.41089892
H        4.74942970       3.38053107       1.11108339
H        9.60343742       1.33550727      -1.40153432
H        8.49760723       6.17742014       1.07022750
H       12.38562393       7.58568192       0.35609999
H       13.08690166       2.89035511      -2.36459541
15
Properties=species:S:1:pos:R:3 energy=-1553.6600341796875 pbc="F F F"
O        2.29788804       0.23954168       1.23841310
C        4.36162043       0.12596914       0.17844684
C        5.75172186      -2.34516907      -0.07961416
C        7.57787752      -2.43948531      -2.28025699
C        9.23813438      -0.11020883      -2.23146415
C        7.56608534       2.20508361      -2.41147947
O        5.57100725       2.24747014      -0.56948787
H        4.35878563      -3.86110735      -0.29612008
H        6.76618338      -2.65992188       1.69978976
H        8.73620415      -4.15144491      -2.16823387
H        6.52966499      -2.52036548      -4.06667185
H       10.31497574      -0.06547901      -0.46149001
H       10.59431458      -0.14259873      -3.79370070
H        8.70260429       3.91093946      -2.12975907
H        6.69146347       2.35030913      -4.28296995
16
Properties=species:S:1:pos:R:3 energy=-1613.3399658203125 pbc="F F F"
C        1.77517092      -0.04421959       0.34432700
C        4.60960913       0.04663844      -0.14841910
C        5.22998714       0.05251549      -2.96335506
C        6.05583525       2.03459263       1.46340394
N        7.74334192      -0.01543906       2.25850630
C        6.17704248      -1.87570441       1.41453564
O        6.13015842      -4.09713411       1.91659808
H        1.35461235      -0.09834135       2.37056684
H        0.92983973      -1.72707736      -0.51521492
H        0.83599597       1.62017560      -0.45043513
H        7.27342367       0.10531444      -3.29486990
H        4.40223026       1.70506215      -3.89504671
H        4.48862886      -1.64457202      -3.88767695
H        5.02875042       2.86023283       3.05765247
H        7.03830385       3.51791406       0.41349098
H        8.61936188      -0.28755963       3.93348384
13
Properties=species:S:1:pos:R:3 energy=-1419.8499755859375 pbc="F F F"
C        5.10314894      -2.06342983       0.72104388
C        4.14929056       0.24530534       0.30464274
C        5.59128380       2.50492644       0.18746084
C        4.68185329       4.90177965      -0.23493075
N        6.77665234       6.41854954      -0.17583902
C        8.82277203       4.90640926       0.27060878
N        8.16221809       2.52410722       0.49922785
H        3.89121056      -3.71251822       0.78705204
H        7.11820173      -2.33934855       1.00318003
H        2.12014055       0.41341537       0.03477096
H        2.80728269       5.64083242      -0.56002033
H        6.81716824       8.31167698      -0.41672242
H       10.72512150       5.64105940       0.40772730
15
Properties=species:S:1:pos:R:3 energy=-1566.6300048828125 pbc="F F F"
C        1.80616248      -0.02012558      -0.01439971
C        4.59451008       0.09497763      -0.00075589
C        6.26281691       2.08818507       0.00812582
N        8.71146774       1.24549961       0.01961536
C        8.57181644      -1.23801625       0.01800909
C       10.72430897      -3.02800274       0.02755221
N        6.09801388      -2.01777387       0.00523454
H        0.98405600       1.87855780       0.00243775
H        1.10868347      -1.03316998       1.64990103
H        1.12427366      -0.99705732      -1.70642269
H        5.83520985       4.08925390       0.00680301
H       10.08507156      -4.99471617       0.04367157
H       11.90002155      -2.71770954       1.69952524
H       11.89391708      -2.74274850      -1.65309465
H        5.50309038      -3.83100390       0.00134171
15
Properties=species:S:1:pos:R:3 energy=-1492.97998046875 pbc="F F F"
C        6.74853325       7.93405294       4.33809328
C        7.45075560       6.40271330       2.46611142
O        8.25239658       3.98881507       2.93557620
C        8.89607430       2.63490176       0.65531921
C       11.50905609       3.11035705      -0.51251262
O       12.07555771       0.43231264      -0.54635763
C        9.89691162      -0.05994211       1.03727067
H        6.10459042       9.84152317       3.96165967
H        6.80084085       7.30050325       6.28761005
H        7.41286659       6.98136663       0.50550175
H        7.35077000       2.67169476      -0.73030359
H       12.85571194       4.14696598       0.66569382
H       11.48567963       3.91031575      -2.41777229
H        8.70481586      -1.55760682       0.25860903
H       10.46210957      -0.54717022       2.96617079
10
Properties=species:S:1:pos:R:3 energy=-1093.56005859375 pbc="F F F"
C        1.85975504       0.00011338       0.02953642
C        4.39506817       0.00005669      -0.01256668
C        5.80264997      -2.42480206      -0.00517785
O        4.76360273      -4.49563980       0.03839923
C        5.75837326       2.43564916      -0.06610262
O        8.06948948       2.56021976      -0.10603254
H        0.75237554       1.72600031       0.02604043
H        0.80746108      -1.76619470       0.06940964
H        7.87783384      -2.24847174      -0.04195192
H        4.57228708       4.14946079      -0.06816242
17
Properties=species:S:1:pos:R:3 energy=-1647.27001953125 pbc="F F F"
O        4.07661152      -0.72709101      -2.56010652
C        4.41065836       0.05597369      -0.01492884
C        5.96497726       2.46180296      -0.00729434
C        4.66340923       4.88180494      -1.01967728
C        5.94137478       6.36072350       1.14662910
O        8.25509834       7.66051531       0.53569955
C        6.21534681       3.82620406       2.56779766
H        3.09100604      -2.27815938      -2.52474976
H        5.39025497      -1.44771922       1.01253414
H        2.54846573       0.34398684       0.83849037
H        7.82169008       2.15419340      -0.88947517
H        2.59536886       4.87350941      -0.89949071
H        5.21428347       5.43381310      -2.93385649
H        4.65949774       7.68181229       2.09353304
H        9.25782490       6.46437502      -0.43441024
H        8.01480103       3.53136897       3.54108214
H        4.67195082       3.46229959       3.90082932
13
Properties=species:S:1:pos:R:3 energy=-1316.1500244140625 pbc="F F F"
O        5.89458513      -1.74667382      -1.17752612
C        4.32097197       0.09235092       0.01740438
C        3.59860539      -0.69968998       2.59208059
N        3.02615070      -1.31358647       4.62132549
C        5.81196594       2.48638821       0.37537521
C        6.41900301       4.14156151      -1.87661147
N        4.60547066       4.95671368       0.02490659
H        6.13580847      -1.18126786      -2.90717363
H        2.63781214       0.37609330      -1.15439594
H        7.26401281       2.33895183       1.81925821
H        5.63225317       3.68120551      -3.70885205
H        8.21499825       5.12425709      -1.91497290
H        5.37766933       6.27050829       1.21724820
18
Properties=species:S:1:pos:R:3 energy=-1774.75 pbc="F F F"
C       -1.69132376      -0.02681521      -2.10628867
C       -1.12365007       2.00749397      -0.06848367
C       -2.19807267      -0.01555245       1.75251317
N       -1.26112759      -1.96690249      -0.07640163
C        1.48517358      -2.32770801       0.34765291
C        3.12422752       0.01955867      -0.15059228
C        1.68794119       2.46131158       0.40402344
H       -3.64443135      -0.00340151      -2.80614877
H       -0.44491711      -0.11591580      -3.75526381
H       -2.22554946       3.75267482      -0.18740414
H       -1.40389645      -0.08312906       3.66255379
H       -4.26467705       0.01056357       1.93061984
H        1.78089678      -2.98213911       2.29344726
H        2.14124870      -3.86934662      -0.87127715
H        3.67823863       0.02260112      -2.14946890
H        4.88293886      -0.06039565       0.93703961
H        2.39789248       3.98123717      -0.80963427
H        1.99141228       3.05336285       2.36597490
17
Properties=species:S:1:pos:R:3 energy=-1660.800048828125 pbc="F F F"
O        3.99900055      -0.50236481      -2.71697259
C        4.46629190       0.10996316      -0.14386486
C        5.78807974       2.65077543      -0.00090707
C        4.23408270       4.85729551      -0.95691949
C        5.57605267       7.07233763       0.25811771
O        6.55491209       6.18998671       2.62883592
C        6.37958336       3.48178267       2.67594671
H        3.17324710      -2.14474463      -2.74386334
H        5.65404177      -1.37301826       0.67557710
H        2.65750289       0.13766655       0.86188519
H        7.54023409       2.58248091      -1.11123455
H        2.28753233       4.73973560      -0.25137138
H        4.16610909       5.00072575      -3.01823282
H        7.17786026       7.70014286      -0.89147830
H        4.32165241       8.68242264       0.57850188
H        8.15879822       2.69197154       3.37229180
H        4.87405729       2.97673440       4.00483990
15
Properties=species:S:1:pos:R:3 energy=-1411.6199951171875 pbc="F F F"
C        2.00293970      -0.00411960       0.13679728
N        4.75211334       0.04291568      -0.05655950
C        5.83411360       1.93511736       1.72295785
C        7.91698885      -0.03344815       2.34012341
O       10.18131542       0.07403947       0.80831146
C        5.88799000      -1.98695254       1.52714443
H        1.25237823      -1.62404954      -0.91156608
H        1.20796967       1.70434403      -0.72045809
H        1.30398667      -0.12509987       2.08444357
H        4.65991354       2.43959856       3.35645604
H        6.49523449       3.67185116       0.81639946
H        8.43432045      -0.12574238       4.34056854
H        9.52125263       0.14972301      -0.91200072
H        6.59527636      -3.60614538       0.45319411
H        4.73100519      -2.68367577       3.10119176
11
Properties=species:S:1:pos:R:3 energy=-1240.219970703125 pbc="F F F"
O        1.94218493      -0.12698960       0.02734434
C        4.21380568       0.24528645       0.06334362
C        5.45713234       2.75586319       0.05809018
C        7.95767450       2.32398510       0.06132161
C        8.68884754      -0.35337877       0.11559455
O        7.84361076      -2.02550292       2.07102656
C        6.17305517      -1.75582016      -0.04293458
H        4.44815063       4.51835394       0.05706973
H        9.35879326       3.81503582       0.07368042
H       10.21657753      -0.95058894      -1.10668027
H        5.95773935      -3.29124141      -1.36967349
16
Properties=species:S:1:pos:R:3 energy=-1612.530029296875 pbc="F F F"
C        4.57383633       6.42644835       2.00554752
N        7.11871195       5.74438953       1.33454347
C        7.61502934       3.52636123       0.08401722
O        5.98315620       2.01699924      -0.56567061
C       10.35904408       2.96452665      -0.30282861
C       11.04862404       0.21680827      -0.26246408
C       12.04815674       4.80234194      -0.76654851
H        4.55998468       8.38926888       2.64436936
H        3.92505574       5.18658018       3.52530289
H        3.33309889       6.20946980       0.36670136
H        8.56576920       6.69936275       2.13943458
H       10.06025982      -0.80568475      -1.76513648
H       10.53964520      -0.62765366       1.55630291
H       13.07875633      -0.07235762      -0.54189789
H       11.52130127       6.77831554      -0.90608591
H       14.02741814       4.35793543      -1.09426486
15
Properties=species:S:1:pos:R:3 energy=-1545.5699462890625 pbc="F F F"
C        1.65351033      -0.30636239       0.36590767
C        4.46007490       0.01417295       0.44967923
C        5.78692722       2.14635086       0.01638393
C        4.75543928       4.71798468      -0.56500924
C        8.59114838       2.07722473       0.23693386
O        9.63505173       0.08955412      -0.97105467
O        9.82377911       3.71724248       1.28367209
H        1.17104435      -1.83165491      -0.94782996
H        0.63897312       1.38397872      -0.24468175
H        0.95315897      -0.83051574       2.24112082
H        5.46187544      -1.69890153       1.00023210
H        2.70204377       4.74831486      -0.76309031
H        5.55227995       5.42033911      -2.34144616
H        5.24635220       6.05286837       0.93972301
H        8.41708565      -0.88911617      -1.94658804
13
Properties=species:S:1:pos:R:3 energy=-1345.9300537109375 pbc="F F F"
O        2.60517645       5.72073030       1.75028324
C        3.92635965       3.82756472       1.97757947
C        5.40036488       2.66621470      -0.17944840
O        7.99684858       2.38532567       0.42214593
C        9.36185455       4.70133638       0.18570338
C       12.01714611       4.23995972       0.83079922
C       14.19048309       3.85477686       1.35553837
H        4.07218981       2.82699251       3.80137300
H        5.14062214       3.77321625      -1.90873682
H        4.61781025       0.77962542      -0.50281835
H        8.56448460       6.12361956       1.46068275
H        9.21984196       5.39359951      -1.76069558
H       16.11738014       3.49546432       1.82071328
17
Properties=species:S:1:pos:R:3 energy=-1661.3199462890625 pbc="F F F"
C        1.86943042       0.12256764      -0.07007104
C        4.75836802      -0.05950747       0.02791126
C        5.69187403      -0.02949863       2.75652456
C        5.73539448      -2.34857059      -1.43575728
C        6.48931932      -1.08731067      -3.84470463
N        6.52170944       1.35338402      -3.79706454
N        5.90972185       2.01983380      -1.40149653
H        1.16571534       0.12595025      -2.01877546
H        1.19479823       1.85484183       0.84308243
H        0.99889034      -1.48451221       0.90332687
H        7.75957441      -0.10744983       2.85531950
H        4.95620346      -1.65685523       3.80394316
H        5.08353329       1.68790340       3.74133658
H        4.30001497      -3.78555608      -1.81256866
H        7.41598463      -3.22997665      -0.61340511
H        7.00018787      -2.20933557      -5.51457977
H        4.91033983       3.66907334      -1.32537830
14
Properties=species:S:1:pos:R:3 energy=-1450.8499755859375 pbc="F F F"
N        2.09290957       0.16890372      -1.12599337
C        4.26713371      -0.05759885      -0.95302671
C        7.01866961      -0.32193375      -0.73655856
C        8.10238934       1.66305351       1.05637586
C       10.91723156       1.46236455       1.23223376
C       12.26653385       1.73580790       3.72408319
O       11.79465008      -0.69290590       2.61237621
H        7.88703680      -0.13226193      -2.60812449
H        7.48435497      -2.22239351      -0.05589810
H        7.23869038       1.46062601       2.93158889
H        7.61727810       3.56564856       0.39017177
H       11.89968109       1.97200477      -0.48741707
H       11.19426537       2.23496032       5.39393997
H       14.19764519       2.41350150       3.71707249
17
Properties=species:S:1:pos:R:3 energy=-1584.06005859375 pbc="F F F"
C        2.28796697       4.50480461       3.71365190
C        1.57300806       2.17269373       2.20351505
C        3.80027699       1.14970934       0.68992013
O        2.94944668      -1.03199840      -0.68238008
C        4.67363310      -2.13748813      -2.21555281
N        6.95485353      -1.32275164      -2.50662732
N        8.32817459      -2.71850324      -4.15615034
H        0.65641528       5.19625568       4.77883387
H        2.93198562       6.02380419       2.46749091
H        3.80073047       4.08078814       5.05792761
H        0.00740773       2.61836672       0.91912502
H        0.86163950       0.69846165       3.47635913
H        5.33592510       0.60233128       1.96677029
H        4.47215033       2.59060669      -0.63761252
H        3.84500694      -3.79969120      -3.16107726
H       10.18205261      -2.17685103      -4.05421829
H        7.80672312      -2.33296132      -5.97905588
17
Properties=species:S:1:pos:R:3 energy=-1782.4599609375 pbc="F F F"
C        1.63000214      -2.34029365       1.62609041
C        2.13367081      -0.78746778      -0.70585048
C        1.87802875       2.04158449      -0.76254231
C       -0.46946466       3.08061266       0.59284490
C       -2.79522610       1.47959888       0.27270639
C       -2.63250184      -0.99771869      -0.24256524
C       -0.23685828      -2.36325359      -0.53396100
H        2.76372457      -4.02307558       1.91667366
H        1.13043416      -1.38628423       3.36845565
H        3.62379551      -1.43337619      -1.95630121
H        3.58021855       2.90940356       0.03667958
H        1.79896259       2.62373352      -2.75187588
H       -0.08632269       3.26123261       2.62191939
H       -0.84890276       4.99178696      -0.11043560
H       -4.62761784       2.36826158       0.52526826
H       -4.36260271      -2.09139776      -0.43286067
H       -0.33138236      -4.05385923      -1.69005764
18
Properties=species:S:1:pos:R:3 energy=-1764.719970703125 pbc="F F F"
C        2.07867980       0.13590911       0.16765650
C        1.17537189       1.13411915       2.66644144
C       -0.61111856      -0.40536514       4.26490402
C        2.07138562      -0.01388949       5.11361790
C        4.79024792       0.81891280      -0.32019520
C        6.82185459      -1.17826319      -0.21542878
N        6.00464249      -0.11455519      -2.62532091
H        1.81430721      -1.91727829       0.06360818
H        0.89877266       0.96107692      -1.32252479
H        0.89365149       3.16449761       2.61967063
H       -1.14606225      -2.27870727       3.62986159
H       -2.09377885       0.58715683       5.27241135
H        2.40225768       1.24617994       6.69522429
H        3.34462619      -1.61866379       5.04188395
H        5.24884653       2.74203038       0.20611243
H        6.28949976      -3.12330151       0.12079129
H        8.68693829      -0.64895087       0.43869993
H        7.28638697       1.16584766      -3.28532672
14
Properties=species:S:1:pos:R:3 energy=-1410.5 pbc="F F F"
N        5.68890715      -2.20154977      -0.66095060
C        4.42628670       0.08140940       0.21705395
C        6.32075596       2.11224127       0.70071048
O        6.84882116       3.74488926      -1.39437222
C        5.51567602       4.84692097       0.69747901
C        6.98217916       6.66238070       2.06017947
C        8.21057701       8.19045067       3.20510769
H        4.37624645      -3.56493044      -1.00932157
H        6.83723688      -2.89222574       0.71955103
H        3.39387250      -0.33032411       1.96263182
H        3.04179764       0.67824161      -1.20186579
H        7.86698675       1.54226220       1.90958714
H        3.53645229       5.28409004       0.40838870
H        9.31126690       9.54632950       4.20520735
14
Properties=species:S:1:pos:R:3 energy=-1328.8900146484375 pbc="F F F"
C        1.67828465       0.01729099       0.03624495
C        4.49497795      -0.15917163      -0.02297907
C        6.03909206       1.85607016       0.02460423
C        8.85691929       1.70906830      -0.02522784
N        9.80391788       3.10695553      -2.19340515
H        0.94525993      -0.98656934       1.68890488
H        0.88305014      -0.85600817      -1.66118264
H        1.01706946       1.97517955       0.12481641
H        5.28630114      -2.05307412      -0.11427174
H        5.24045610       3.74842286       0.12288889
H        9.51851273      -0.25048319      -0.11601029
H        9.61012650       2.54462957       1.71150601
H        9.16037178       2.25958323      -3.79885983
H       11.72117710       2.95570183      -2.24522138
14
Properties=species:S:1:pos:R:3 energy=-1431.75 pbc="F F F"
C        1.86260855      -0.32864228       0.77295470
N        4.47349215      -0.56642652      -0.03531898
C        5.34603500      -2.98697662      -0.55266929
O        4.11412287      -4.94348574      -0.39943141
C        5.76196384       1.67388165      -0.55858415
C        8.49660587       1.46132517      -1.33558285
O        4.74585819       3.76858640      -0.45704916
H        1.65757322       1.25717807       2.08463240
H        1.19853985      -2.05107093       1.70262432
H        0.69320822       0.03118048      -0.89520109
H        7.32200861      -3.05075502      -1.18814635
H        9.56309128       0.38102549       0.06570578
H        9.32559013       3.35358357      -1.43830836
H        8.63893986       0.58628756      -3.20123386
9
Properties=species:S:1:pos:R:3 energy=-1084.8199462890625 pbc="F F F"
N        1.78752971      -0.02025786      -0.00893840
C        3.98121834      -0.05869490      -0.00283459
C        6.67621326      -0.02099486       0.00440306
C        8.21167278       2.06779504       0.00171965
O       10.65457821       1.24240041       0.01111159
C       10.43924427      -1.32507598       0.01897285
N        8.10943890      -2.18926668       0.01545796
H        7.92647505       4.08915949      -0.00570697
H       12.18421745      -2.38931298       0.02726875
14
Properties=species:S:1:pos:R:3 energy=-1410.1500244140625 pbc="F F F"
C        1.76952064       0.00321253       1.88664591
C        0.55340630       1.84420264      -0.05094702
C       -2.28842044       1.47258794       0.15629925
C       -2.31347823      -1.41776705       0.17391150
C        0.52449352      -1.83934605      -0.02987657
O        1.40383971      -0.01727210      -2.01123548
H        3.83584166      -0.01358713       1.93456936
H        1.00877357       0.02110824       3.80602193
H        1.37889540       3.71816850      -0.27174261
H       -3.07122064       2.27426648       1.89365673
H       -3.29932952       2.24246240      -1.47372186
H       -3.33657598      -2.19145870      -1.44751132
H       -3.10865617      -2.18718791       1.92090666
H        1.31700683      -3.72962022      -0.22776869
18
Properties=species:S:1:pos:R:3 energy=-1756.3599853515625 pbc="F F F"
C        1.17062867       0.59310943      -1.43611622
C        0.11850473       2.43122721       0.46194357
N        0.31594330      -0.25611457       1.04269421
C        2.41113925      -0.82957089       2.75994492
C        1.35572731      -1.09452939       5.47595406
C        3.00632763      -3.48990846       5.71254778
C        2.81977367      -3.72610521       2.80860543
H       -0.01570362       0.05308241      -3.01494455
H        3.17976665       0.62022704      -1.82498407
H       -1.78070784       3.13630295       0.16956513
H        1.39879417       3.73069739       1.38875973
H        4.15082121       0.28895801       2.61133695
H       -0.67431098      -1.48757350       5.63121367
H        1.83581221       0.44109988       6.77381802
H        4.92492867      -3.11914420       6.39916086
H        2.18766046      -5.04456711       6.79717493
H        4.52950335      -4.40291071       1.86561322
H        1.21452701      -4.88428068       2.18966341
16
Properties=species:S:1:pos:R:3 energy=-1615.5699462890625 pbc="F F F"
C        1.87109339      -0.09745318       0.15637484
C        4.71819258       0.14291999      -0.00978878
C        5.98553753       2.10645890       1.73251987
C        7.92135382       0.01173520       2.32638526
N        6.03835535      -1.85743070       1.43660760
C       10.17674255      -0.04559909       0.77066809
C       12.04352665      -0.09652721      -0.52309507
H        1.21018064      -1.74911165      -0.90136158
H        0.95948952       1.57270563      -0.65677434
H        1.21772063      -0.28444159       2.11193895
H        5.36258936       0.27726063      -1.97842991
H        4.85213661       2.67286634       3.37333131
H        6.69798326       3.80949903       0.80198085
H        8.35207939      -0.16346131       4.34429121
H        6.77213573      -3.27459311       0.36031407
H       13.69639492      -0.14273101      -1.67110372
19
Properties=species:S:1:pos:R:3 energy=-1911.18994140625 pbc="F F F"
C        4.14857244      -0.87721086       2.65714383
C        4.22625923       0.33546418       0.04556130
C        5.54827356       2.87313962       0.05374381
C        4.18030119       5.01380253       0.13435952
C        8.29404545       3.03775358      -0.09042340
C        9.92637253       1.10061431      -0.22253415
C       12.72998905       1.42955887      -0.38735607
H        3.17273688      -2.69864225       2.56280875
H        3.12483215       0.32148021       3.99926519
H        6.04406214      -1.20829093       3.40759206
H        2.27347279       0.55782825      -0.62113410
H        5.11401463      -0.95142043      -1.31532502
H        2.13119531       4.96693707       0.22640809
H        5.05070877       6.87140322       0.12245426
H        9.06977844       4.94637728      -0.10077909
H        9.27161980      -0.84278005      -0.21909484
H       13.29067039       3.41987514      -0.36900681
H       13.43393040       0.57799166      -2.13567400
H       13.64359570       0.48715249       1.20931137
17
Properties=species:S:1:pos:R:3 energy=-1598.0799560546875 pbc="F F F"
C        1.43547380       5.65920067       4.22503090
N        2.54073668       4.13449383       2.25506687
C        4.64693117       4.82783461       0.89627820
N        5.27813721       7.12993670       0.39357325
C        6.30777359       2.68968511      -0.14299558
O        5.89176941       0.44792178       1.30846524
C        7.42849445      -1.57006001       0.42165458
H       -0.19282766       4.67372751       5.03477859
H        0.76709652       7.47188282       3.48877454
H        2.80276632       6.00307417       5.73851252
H        2.60823774       2.25351739       2.69478726
H        3.95685983       8.32365799       1.13670802
H        8.29504776       3.26249886      -0.03023562
H        5.77655268       2.36383963      -2.11675787
H        7.10678768      -3.21192980       1.63338482
H        9.42990303      -1.06079781       0.51884323
H        6.91180563      -2.06804061      -1.51780915
11
Properties=species:S:1:pos:R:3 energy=-1233.6700439453125 pbc="F F F"
O        5.16807985      -1.98018730       1.57368839
C        4.16900063       0.03936300       1.07200384
O        5.30839205       2.28845835       0.51691568
C        7.94843388       2.27383184       0.52324629
C        9.27498341       4.35819960       0.00000000
C       11.93193913       4.35819960       0.00000000
C       14.18101501       4.35819960       0.00000000
H        2.10883999       0.32554314       0.99768090
H        8.80772972       0.47194022       0.97681832
H        8.30353260       6.10986233      -0.44142112
H       16.19404602       4.35362673       0.00113384
19
Properties=species:S:1:pos:R:3 energy=-1922.25 pbc="F F F"
C        3.23260331      -0.27223393      -0.07710083
C        1.55242896      -2.36831808       0.97122473
C       -0.81679630      -2.90645552      -0.58558834
C       -2.91021609      -1.00729966      -0.31471500
C       -2.71202159       1.44091618       0.32053533
C       -0.33228946       2.94833183       0.67347950
C        1.88313103       2.11329961      -0.97678053
H        4.34729624      -1.01950729      -1.65878272
H        4.60698223       0.24184716       1.38926995
H        2.68709612      -4.10059214       1.08054543
H        1.02132142      -1.91907358       2.92520165
H       -1.57247889      -4.72794342       0.06200191
H       -0.34907022      -3.14594054      -2.58954835
H       -4.80234194      -1.76290667      -0.60558164
H       -4.45699453       2.51210737       0.53743809
H        0.19199617       2.97688556       2.67779851
H       -0.77747113       4.90845013       0.15771654
H        3.27759767       3.64590526      -1.05357897
H        1.23605096       1.84325778      -2.92896223
18
Properties=species:S:1:pos:R:3 energy=-1767.5 pbc="F F F"
C        3.16772914      -0.71399522      -2.22664547
C        4.38019609       0.31993064      -0.25955388
C        5.59615946       2.87251592      -0.27949050
N        8.32089901       2.55453181      -0.03628274
C        9.59778690       4.99866581      -0.00531013
C       12.39420319       4.57882547       0.07368042
C       14.02690792       5.45006466      -1.65383160
H        2.33143067      -2.58011866      -2.07764053
H        3.00182986       0.26021528      -4.02568340
H        4.50920773      -0.73546249       1.49902523
H        4.84586239       3.96640277       1.31014717
H        5.13126802       3.89121056      -2.02242279
H        8.95080090       1.56359720      -1.56448531
H        9.04577923       6.07157660       1.68181849
H        9.07671356       6.12207031      -1.67089581
H       13.10783958       3.49162817       1.66507554
H       13.40811729       6.54551983      -3.27124810
H       16.03425026       5.06964397      -1.47806823
12
Properties=species:S:1:pos:R:3 energy=-1228.4000244140625 pbc="F F F"
O        1.71645713       0.05988542       0.20380697
C        4.42464256       0.11880708      -0.08101256
C        5.85597801       2.05345201       1.59441864
C        7.72145891      -0.00680301       2.50290442
C        5.87750196      -1.96242392       1.38673770
O        5.62849283      -4.23285437       1.58149290
H        1.24381769      -1.66329920      -0.25016195
H        4.96102238       0.17589571      -2.08009720
H        4.70375490       2.85518718       3.11855841
H        6.73430347       3.61185241       0.55705345
H        9.55647755       0.00325033       1.55258012
H        7.97284889      -0.12954073       4.54683208
15
Properties=species:S:1:pos:R:3 energy=-1458.7099609375 pbc="F F F"
C        2.87461352      -0.61062723       0.64876187
C        5.70716190      -0.40753832       0.24112906
C        6.50664854       2.21417332      -0.59086066
O        5.03320980       3.97439647      -0.90927953
N        9.07839584       2.41327477      -0.96381700
C       10.21795750       4.79525566      -1.62559915
H        2.36843157      -2.52310562       1.25063968
H        1.84100902      -0.18566559      -1.09297979
H        2.23633981       0.71562040       2.10335970
H        6.29639721      -1.76388931      -1.20823419
H        6.69225740      -0.86660951       2.00358224
H       10.20996380       0.97944504      -0.39946920
H        9.12235069       5.71819782      -3.11445761
H       12.14421177       4.44558096      -2.28080487
H       10.25437164       6.00280952       0.05024782
16
Properties=species:S:1:pos:R:3 energy=-1488.219970703125 pbc="F F F"
N        4.35404253      -0.87953526      -2.65291095
C        4.57489491       0.12653606      -0.08354479
C        6.06114531       2.60003638      -0.07394499
C        4.68941212       4.98430395      -1.06121349
C        5.95594454       6.31879044       1.18449926
N        6.10251141       3.83315825       2.46072578
H        3.29532337      -2.48816466      -2.60145378
H        6.09519815      -1.41223013      -3.28054571
H        5.52518129      -1.28251934       1.10263634
H        2.67228055       0.40453368       0.68793589
H        7.96886158       2.37500787      -0.86490875
H        2.62191939       4.92018557      -0.94093245
H        5.24459457       5.64387512      -2.93771148
H        7.80674219       7.14172840       0.74884176
H        4.80092478       7.72820520       2.15793490
H        7.71818972       3.54771519       3.46732616
15
Properties=species:S:1:pos:R:3 energy=-1547.6500244140625 pbc="F F F"
C        1.86636913       0.03180409       0.47658893
C        4.66745329      -0.27962276       0.08547232
C        5.67904282      -2.59302545      -0.22480182
C        6.27765131       2.08270502       0.02553020
O        5.32156324       3.75414872      -1.84970176
C        6.31164742       3.34610033       2.50228095
C        6.34632397       4.39085436       4.51746607
H        1.47400522       0.97944504       2.27239561
H        0.88337135      -1.78983521       0.51470470
H        1.03596675       1.14755511      -1.05439162
H        4.52209568      -4.28771305      -0.19632365
H        7.69258356      -2.85531950      -0.52498484
H        8.21964741       1.62112045      -0.52636433
H        3.92792797       4.66405201      -1.07806981
H        6.38547897       5.31458998       6.30697966
17
Properties=species:S:1:pos:R:3 energy=-1689.02001953125 pbc="F F F"
C        1.79370916       0.19165602      -0.23693386
C        4.65139103       0.03016003      -0.11402608
O        5.64818335       2.53104258      -0.11207966
C        8.34127045       2.52949286       0.00000000
C        9.25213718       5.10175037       0.00000000
C       10.00290585       7.22181511       0.00000000
C       10.90464592       9.83313370      -0.00060471
H        0.94936061      -1.69389379      -0.24199833
H        1.19457150       1.19729269      -1.94244945
H        1.05475068       1.25107431       1.37864971
H        5.36765385      -1.00841451      -1.75623584
H        5.22571659      -0.95442510       1.61477101
H        9.09264374       1.50371182      -1.63457537
H        8.95320129       1.55329823       1.72082245
H        9.39252472      11.13526821      -0.54596078
H       12.46797848      10.07273197      -1.33407104
H       11.57561207      10.38166428       1.87782085
16
Properties=species:S:1:pos:R:3 energy=-1581.719970703125 pbc="F F F"
C        1.85754406       0.19354574       0.41420907
C        4.64995480      -0.18950173      -0.17691617
N        5.21152449      -2.80282283      -0.99197394
C        5.24126863      -2.87741041      -3.77510595
C        5.97506857      -0.26533645      -4.52060270
O        3.99550462       1.57894182      -4.53324509
C        5.55908298       1.41211677      -2.32483554
H        1.48655307       2.16821504       0.91120702
H        1.27278721      -0.99097240       2.00749397
H        0.64955556      -0.27627796      -1.20078874
H        5.76173735       0.21614687       1.52147520
H        3.89223123      -4.02808332      -0.31664252
H        6.60642576      -4.28108025      -4.43526268
H        3.36887145      -3.35747647      -4.51642656
H        7.60707378      -0.05652171      -5.71687508
H        6.87643003       2.89757371      -1.87638462
13
Properties=species:S:1:pos:R:3 energy=-1397.9100341796875 pbc="F F F"
O        5.08564997      -1.61632061       0.56580287
C        3.85904765       0.60210454       0.24861237
O        1.57019234       0.74657410       0.01139505
C        5.60443640       2.82629323       0.29217055
C        4.66023493       5.00456190       1.19011176
C        8.12663460       2.64034414      -0.77148068
C       10.23437881       3.47021747       0.35545748
H        6.87739372      -1.41651976       0.95213848
H        2.73639894       5.12132788       1.90336990
H        5.75468874       6.73817778       1.20436025
H        8.25576019       1.72171056      -2.61177158
H       10.20614624       4.37724829       2.19705224
H       12.05938148       3.26204515      -0.55714798
16
Properties=species:S:1:pos:R:3 energy=-1590.5 pbc="F F F"
O        4.33191347      -0.66867959      -2.76574659
C        4.35644245       0.33383903      -0.25758857
C        6.31206322       2.47346258      -0.03050018
N        6.66663265       3.23555136       2.64784646
C        5.93230391       5.91554213       2.85545182
C        5.29217815       6.74628448       0.25855234
C        5.49677849       4.82690859      -1.35829735
H        3.03514576      -1.97062528      -2.79205155
H        4.84287691      -1.21864665       1.02287102
H        2.44761109       0.99186057       0.20477073
H        8.12106037       1.85229063      -0.82851261
H        8.54834652       3.11077261       3.03731894
H        7.49191380       7.03660297       3.62549639
H        4.29891920       6.10198259       4.10992765
H        4.71955299       8.64339924      -0.22935607
H        5.12427568       4.91128492      -3.36412835
14
Properties=species:S:1:pos:R:3 energy=-1449.0799560546875 pbc="F F F"
C        2.09202123      -0.15408827       1.08126354
C        4.76210976       0.00000000       0.00000000
N        4.82889271      -0.95349914      -2.56605911
C        4.97324896      -3.48087549      -3.08603621
O        5.11046219      -5.17356014      -1.52236342
C        5.67299557       2.57223845       0.00000000
C        6.42374611       4.69232225       0.00000000
H        2.03289175       0.56370533       3.02293825
H        1.40916872      -2.10834861       1.10420477
H        0.75328261       0.95767540      -0.04412511
H        6.00479364      -1.18612444       1.15895009
H        4.60327816       0.28069991      -4.00672960
H        4.95393610      -3.85305715      -5.13637018
H        7.10266781       6.58866262       0.00878723
16
Properties=species:S:1:pos:R:3 energy=-1611.5400390625 pbc="F F F"
C        4.98345327      -2.06688786       1.80145705
C        5.86905479      -0.56788158      -0.48518717
C        6.02325630       2.20661426       0.09070686
C        8.16193485       3.54909468      -0.05102260
N        8.21135139       6.07650900       0.48055735
C       10.31382275       7.57799053       0.37393901
O       10.28434277       9.83844376       0.86362374
H        4.85597277      -4.07763195       1.33172774
H        3.11406088      -1.44002795       2.43158627
H        6.29979897      -1.86172044       3.38548207
H        4.53963232      -0.84890276      -2.04819846
H        7.70259953      -1.30115199      -1.11166918
H        4.26163483       3.12012672       0.62706780
H        9.94158459       2.67536092      -0.59509367
H        6.60347795       6.97906113       0.99792659
H       12.04874229       6.57390356      -0.19399929
18
Properties=species:S:1:pos:R:3 energy=-1723.469970703125 pbc="F F F"
C        2.59404588      -1.14455044       0.92936730
C        5.43078947      -1.03248966       0.67861956
C        6.84097862      -3.06296253       1.27051961
C        6.45001316       1.45884967      -0.29683819
O        5.63941526       3.41416812       1.38995028
C        9.35352039       1.69058681      -0.59891093
N       10.05836964       4.28816652      -1.33070731
H        1.69565129      -0.70367730      -0.88208634
H        1.93033636       0.21200837       2.34327936
H        1.93477726      -3.01944232       1.50902188
H        5.97419930      -4.79327154       1.95803976
H        8.88416958      -3.08044267       1.12113667
H        5.57280254       1.84476960      -2.13622212
H        6.83699131       4.79366827       1.09307432
H       10.05995750       0.35154575      -2.00981832
H       10.28661060       1.29854417       1.20789409
H        9.39592648       4.64177227      -3.10871291
H       11.98076916       4.38970137      -1.46115518
15
Properties=species:S:1:pos:R:3 energy=-1615.949951171875 pbc="F F F"
C        1.46964002       0.03558354      -0.28640690
C        4.29056644      -0.02757110      -0.39960149
C        5.78475428       1.67238867       0.74067813
C        8.51081657       1.57187414       0.60399425
C       10.01331902       3.26574922       1.73964405
C       12.68714905       3.10357285       1.56159413
C       14.94694042       2.97374868       1.41619861
H        0.76035023      -1.71275330       0.55981249
H        0.69250906       0.19647482      -2.19588065
H        0.76541466       1.62607157       0.83287787
H        5.11237049      -1.56724441      -1.48594832
H        4.94399595       3.20584488       1.82313216
H        9.34753036       0.03620715      -0.47970697
H        9.22945976       4.81615591       2.83226490
H       16.95226097       2.85677457       1.28593969
17
Properties=species:S:1:pos:R:3 energy=-1564.1400146484375 pbc="F F F"
C        1.75056672      -0.53233588       0.53622872
N        4.26749277      -0.63689440      -0.62013251
C        4.40232468      -2.78762960      -2.35779238
C        4.83679199       1.71974528      -1.99925470
C        5.17612982       3.86945987      -0.15233083
N        3.75431895       5.86140156      -0.25577444
O        4.49584723       7.53738070       1.65317023
H        1.64077365       0.96748310       1.95822871
H        1.34043944      -2.30140305       1.53290808
H        0.25758857      -0.21786653      -0.86515445
H        4.04212427      -4.56153440      -1.35073841
H        6.29987431      -2.94795394      -3.17192411
H        3.03801823      -2.62864685      -3.90880394
H        3.37215948       2.18497705      -3.38780642
H        6.64696074       1.53510010      -2.99115300
H        6.69571543       3.66967797       1.26519060
H        3.31667733       8.93749714       1.43035257
15
Properties=species:S:1:pos:R:3 energy=-1479.550048828125 pbc="F F F"
O        3.06757355      -0.50610644       1.78469515
C        4.71503687      -0.07874489      -0.29441932
C        5.75705051       2.59512305      -0.22521757
N        7.51007414       3.35849690      -1.79331231
C        7.89550257       6.06488705      -1.09594667
C        5.65935183       6.80016041       0.59447002
N        4.83354139       4.34693718       1.45584500
H        4.10028982      -0.26461834       3.29003215
H        3.65387988      -0.34011289      -2.04857659
H        6.26960087      -1.44034922      -0.23425046
H        9.69106388       6.24214315      -0.07951967
H        7.97617483       7.24672174      -2.79150343
H        4.16678953       7.71095181      -0.51336300
H        6.21840858       8.03929138       2.15001702
H        2.98599410       4.12905169       1.93245280
16
Properties=species:S:1:pos:R:3 energy=-1472.9200439453125 pbc="F F F"
C        4.26987410      -0.91606367      -2.59270430
N        4.44966269       0.16739194      -0.06580026
C        6.07388210       2.41754556      -0.13783662
C        4.54344988       4.79703188      -0.87148499
N        5.80476618       6.15846634       1.24498940
C        6.16296387       3.66531277       2.50073123
H        3.02046275      -2.56348920      -2.54634929
H        6.11942434      -1.53903079      -3.28103709
H        3.46757197       0.43142447      -3.94189310
H        5.08049107      -1.18875110       1.14865112
H        7.92269564       2.21158433      -1.04866576
H        2.48738980       4.67563581      -0.63766921
H        4.94730282       5.56940079      -2.74586654
H        7.46619463       6.98503256       0.72327375
H        7.95349836       3.46889472       3.51802754
H        4.61612844       3.19176626       3.79948330
16
Properties=species:S:1:pos:R:3 energy=-1651.4300537109375 pbc="F F F"
N        1.83989406      -0.10682622      -0.36862889
C        4.55329514      -0.00109604       0.00137950
C        5.79242611      -2.31824040      -1.04987514
C        7.65938139      -1.74493527      -2.66279411
C        7.93490314       1.05265307      -2.97399426
C        5.78602028       2.13932109      -1.43685329
C        5.06340790       4.56601286      -1.51385963
H        1.06312215       1.49396074       0.35424805
H        1.12871456      -1.55569816       0.67283702
H        5.00159502       0.15149935       2.01856756
H        5.25661325      -4.22081661      -0.53664440
H        8.82439709      -3.10996008      -3.63770390
H        9.76181507       1.67021549      -2.22925329
H        7.77484369       1.57928193      -4.96795750
H        6.05186701       5.92888355      -2.68620801
H        3.45702720       5.24317741      -0.43329531
11
Properties=species:S:1:pos:R:3 energy=-1262.530029296875 pbc="F F F"
C        2.01769829       0.54119867       0.21503194
C        4.52054596       0.18113025      -0.05276115
C        5.70062351      -2.41200852      -0.03558354
C        6.56812096      -3.12689209      -2.57598019
N        7.24088240      -3.71625972      -4.57816410
C        6.15731335       2.31875062      -0.26403254
N        7.50300646       4.04331493      -0.39818418
H        1.19682026       2.42625713       0.23130248
H        0.71012127      -1.02903152       0.41084537
H        4.34478283      -3.82584500       0.64280921
H        7.28848457      -2.45046449       1.29608762
11
Properties=species:S:1:pos:R:3 energy=-1186.31005859375 pbc="F F F"
C        1.83505630       0.06912618      -0.01256668
C        4.62816620       0.08012439      -0.00092597
N        6.14533281       2.01240706       0.00844708
N        8.75107574       1.10722828       0.01566583
C        8.76311398      -1.33488369       0.00980768
C        6.13235044      -2.29414654      -0.00173855
O        5.41667318      -4.44905806      -0.00963760
H        1.11690378       2.00558519       0.00476211
H        1.14001513      -0.92655164       1.65832913
H        1.15454710      -0.89110035      -1.70997536
H       10.36138725      -2.65226841       0.01233991
12
Properties=species:S:1:pos:R:3 energy=-1238.6500244140625 pbc="F F F"
O        2.59688044       0.26894581       1.28992701
C        4.56007910      -0.13061787       0.15535438
N        5.43385077      -2.39069247      -0.74349385
O        7.97541904      -2.26544142      -1.61327815
C        8.72019768       0.35891569      -1.32297838
C        7.47243071       2.27953887      -2.99525380
C        6.46949625       1.81782210      -0.36723047
H        4.73743010      -4.06604815      -0.15132926
H       10.56710243       0.77165079      -0.54692453
H        8.46497154       4.03634167      -3.34067678
H        6.37569046       1.61178517      -4.59090090
H        6.77937365       3.22884274       1.07601011
16
Properties=species:S:1:pos:R:3 energy=-1613.7900390625 pbc="F F F"
N        2.22885633       0.59758812       0.07413395
C        4.88369465      -0.07437962      -0.06139720
C        5.42417526      -1.43267703      -2.41420078
C        5.85694170      -2.56086230      -4.33714819
C        6.39109135       2.31665301      -0.23823777
C        7.10130739       3.75242925       2.12856865
C        9.10965157       2.41323686       0.63326615
H        1.90830219       1.50652742       1.73684728
H        1.18943143      -1.01956391       0.11920393
H        5.42311716      -1.20846093       1.58521569
H        6.23324299      -3.54743171      -6.05094099
H        5.88651562       3.44504642      -1.87993741
H        6.58476973       2.97138643       3.95020795
H        7.04656219       5.79858685       2.04899216
H       10.41607571       3.54949141      -0.46175459
H        9.94375801       0.72280133       1.43530369
15
Properties=species:S:1:pos:R:3 energy=-1434.1199951171875 pbc="F F F"
C        2.57881474       0.41439804      -1.24198472
O        5.19034052       0.61599404      -0.64125967
C        6.11519146       2.98210120      -0.08055902
C        4.81012774       5.16021824      -0.05727760
C        8.86980724       3.07781577       0.56839180
N       10.11557198       5.11972141       1.11132908
N       12.58684254       4.69638538       1.61845601
H        2.16517258      -1.57580483      -1.61996770
H        2.12588525       1.49275136      -2.94889879
H        1.40210116       1.01676714       0.34973162
H        2.81722260       5.27418804      -0.49722475
H        5.72547340       6.93588066       0.42002943
H        9.80684757       1.20768619       0.55476689
H       13.38746262       6.32685995       2.28020024
H       13.55853939       4.28665495      -0.00219208
16
Properties=species:S:1:pos:R:3 energy=-1485.6099853515625 pbc="F F F"
C        5.53311825      -2.11702228      -0.85563022
N        4.47670460       0.15626146       0.28185266
C        6.29225874       2.25312042       0.31756848
C        6.48444414       3.98178530      -1.92636788
C        5.30483913       4.92895365       0.46897334
N        6.62653255       6.82211924       1.99122334
H        4.10308695      -3.61056733      -0.87694633
H        7.16502905      -2.80473161       0.21420045
H        6.10991907      -1.77333796      -2.81251717
H        3.88236666      -0.24600455       2.07074308
H        8.04108715       1.85784650       1.32432008
H        5.24279928       3.64849424      -3.52116442
H        8.33692360       4.67378426      -2.45178747
H        3.26278234       5.17348433       0.42413014
H        8.52857971       6.52690601       1.99479496
H        6.06322432       6.71317673       3.83028579
18
Properties=species:S:1:pos:R:3 energy=-1759.6800537109375 pbc="F F F"
C        2.03977036       0.49911445      -0.47685349
C        4.78163052      -0.02798684      -0.12152829
C        6.10330534      -1.92205930      -1.77095687
C        6.68418789       0.85597032      -2.05691028
N        9.13066578       1.80618131      -1.13083100
C       11.02536106       1.70133936      -3.13426208
C        9.85015965       4.16956711      -2.35346484
H        1.57361269       2.37258887       0.26465616
H        0.90905273      -0.89750654       0.54728359
H        1.48445547       0.43888891      -2.46911621
H        5.31731129       0.04898170       1.85506856
H        5.04972601      -2.83099866      -3.27258992
H        7.51855898      -3.12110949      -0.90102142
H        5.91335011       1.75377929      -3.74150658
H       10.50474167       0.88488317      -4.93696642
H       12.93576145       1.30459130      -2.51675606
H       10.97021961       5.44738102      -1.21299636
H        8.53177357       5.08094454      -3.62406015
19
Properties=species:S:1:pos:R:3 energy=-1848.5899658203125 pbc="F F F"
C        5.49628735      -1.73597801      -1.11584544
C        4.97602701      -0.00880612       1.12852550
C        6.28745890       2.58210278       0.92339575
C        5.41790152       4.30078983       3.10678530
O        6.26160765       6.83479929       2.75463486
C        9.14007664       2.29732108       0.95901710
C       10.66593552       3.08870077      -0.89992535
H        4.42490721      -3.49491620      -0.91823685
H        7.49864101      -2.23414755      -1.24822080
H        4.92604351      -0.83675182      -2.88931561
H        5.55386734      -0.97169715       2.87141991
H        2.92556071       0.27342448       1.25857651
H        5.71957731       3.48062992      -0.85905063
H        6.11107206       3.62872767       4.93904495
H        3.35150480       4.36245155       3.19743562
H        8.08706379       6.77173901       2.53382039
H        9.97178268       1.38322282       2.60392928
H        9.93079472       4.00226974      -2.58452177
H       12.69716454       2.82493281      -0.77894509
15
Properties=species:S:1:pos:R:3 energy=-1481.1700439453125 pbc="F F F"
C        1.76016653      -0.01632723       1.81746304
C        0.54960793      -1.93048751      -0.05448081
C        1.43256354      -0.05130607      -2.13561726
C        0.54679227       1.88713717      -0.08951633
N       -2.20296717       1.40948999       0.12506208
C       -2.24767804      -1.36415553       0.17782323
H        3.83045602      -0.01498553       1.89329767
H        1.03335893      -0.00241885       3.75420547
H        1.23009837      -3.87046146      -0.09255879
H        0.39682359      -0.07275446      -3.92656755
H        3.46233726      -0.05531228      -2.55120587
H        1.19459033       3.83780694      -0.16686282
H       -2.98569179       2.09761500       1.74588013
H       -3.33655715      -2.11959243      -1.40958452
H       -3.03883076      -2.08089089       1.95034850
16
Properties=species:S:1:pos:R:3 energy=-1551.219970703125 pbc="F F F"
C        3.61034060       2.30763912      -2.61199832
O        5.95225954       1.80217516      -1.36946559
C        7.61518049       3.77198792      -1.41850400
O        7.23071575       5.80831909      -2.43812466
C        9.98021030       3.04561496      -0.00141729
C       11.80844498       5.26422882       0.15951179
N       14.07076836       4.56588078       1.58687866
H        2.41994548       0.62721902      -2.43980646
H        3.92157865       2.68866444      -4.62085295
H        2.63788772       3.89236331      -1.70511878
H       10.86806107       1.45488131      -0.98628587
H        9.43205738       2.44368052       1.90346444
H       10.90226460       6.88920450       1.07011414
H       12.37400246       5.86261082      -1.74092913
H       13.59404755       4.16259432       3.41040754
H       15.25462532       6.08486128       1.67403281
18
Properties=species:S:1:pos:R:3 energy=-1751.68994140625 pbc="F F F"
C        1.73459852      -0.11083244       0.09836025
C        4.60497904      -0.22761752      -0.24141252
C        5.24680567      -1.75916493      -2.61078882
C        5.69727850       2.46922946      -0.34015071
C        8.53415394       2.52953076      -0.47794953
C        9.83642101       3.61090755      -2.35798144
H        1.23922575       0.91761321       1.82400143
H        0.93327904      -2.01280403       0.24651477
H        0.82819140       0.84278005      -1.49936545
H        5.40085602      -1.21611440       1.40043819
H        4.57874966      -0.80679965      -4.32261610
H        4.36392546      -3.62961578      -2.53470850
H        7.28672743      -2.04927564      -2.78946257
H        5.13164568       3.49546432       1.37056172
H        4.87101460       3.49814773      -1.94061649
H        9.56097507       1.64672625       1.06975508
H        8.89518642       4.52228451      -3.93705535
H       11.88786983       3.60366988      -2.35527897
20
Properties=species:S:1:pos:R:3 energy=-1919.699951171875 pbc="F F F"
C        1.81612134       0.24770530       0.34319317
C        4.53318834      -0.43246382      -0.37169024
C        4.64044952      -1.53797257      -3.04041815
C        6.31066465       1.83046436      -0.08316685
N        5.81170177       4.06400728      -1.66764557
C        7.37456179       2.34394073       2.51683164
C        9.05303574       1.28370988       0.49539170
H        1.73312449       1.04705942       2.25005913
H        0.60888869      -1.43273365       0.30309317
H        1.00595796       1.63716424      -0.95877147
H        5.14889908      -1.92748284       0.93097359
H        3.92339277      -0.20516756      -4.45202446
H        3.49958372      -3.26068473      -3.16308022
H        6.58408928      -2.02249837      -3.56117010
H        5.87595224       3.61158800      -3.53807759
H        4.05357599       4.77016020      -1.33186007
H        6.84173441       1.11238730       4.06457424
H        7.67519808       4.29137897       3.08080173
H       10.48291588       2.51830578      -0.30054206
H        9.65670872      -0.66554266       0.67448103
12
Properties=species:S:1:pos:R:3 energy=-1248.93994140625 pbc="F F F"
C        1.88972616       0.00000000       0.00000000
C        4.61849070       0.00000000       0.00000000
C        6.86756706       0.00000000       0.00000000
C        9.56930828      -0.03286234       0.03709532
C       10.98161411      -1.40886641      -2.00961041
O       10.69577408       1.28370988      -2.04740477
H        1.14506066       1.92912698       0.02199641
H        1.14502287      -0.98367804       1.65961421
H        1.14517403      -0.94548666      -1.68176174
H       10.47688770       0.15684727       1.86287308
H        9.92726040      -2.48980856      -3.39039540
H       12.83299828      -2.15765142      -1.57064593
18
Properties=species:S:1:pos:R:3 energy=-1716.3699951171875 pbc="F F F"
N        1.83910036      -0.15327568       0.21136586
C        4.59706116      -0.08250544      -0.17948619
C        5.31967354      -0.03242770      -2.96469688
O        3.91581488       1.90839660      -4.20320463
C        5.73528099       1.98050857       1.56996560
C        7.75282812       0.01640282       2.34125733
C        5.86359358      -2.06819177       1.56112170
H        1.28930342       0.00122832       2.05451035
H        1.01714504      -1.77723074      -0.42976153
H        4.85738993      -1.82882023      -3.88026905
H        7.33400822       0.33485946      -3.24295902
H        2.30671310       1.98391008      -3.29373598
H        4.55376768       2.58391714       3.16377950
H        6.47280312       3.66803408       0.63028038
H        9.46272850       0.07271666       1.17363334
H        8.30113220       0.02921517       4.33259392
H        6.70557976      -3.70178461       0.61376417
H        4.71632195      -2.74934363       3.14828372
17
Properties=species:S:1:pos:R:3 energy=-1785.27001953125 pbc="F F F"
C       -2.75102544       1.25154674       0.45597202
C       -2.68779516      -1.48645854      -0.43526062
C       -0.52506042      -2.97270918       0.61886638
C        1.87819886      -2.21923757       0.86668509
C        3.00662994       0.10030666      -0.00126612
C        1.89813542       2.25510478      -0.73865616
C       -0.84259111       2.95417118      -0.87127715
H       -4.64490891       2.01475048       0.09087693
H       -2.47584367       1.34663773       2.50976419
H       -2.69446611      -1.61361825      -2.50333905
H       -4.43548965      -2.39645624       0.21076116
H       -1.00234854      -4.85772991       1.29295063
H        3.21004009      -3.54246163       1.71315014
H        5.06510878       0.03690635      -0.06778447
H        3.15805364       3.75902438      -1.36927664
H       -1.03902817       4.85559464      -0.06391054
H       -1.36007369       3.12470007      -2.87219477
11
Properties=species:S:1:pos:R:3 energy=-1279.0999755859375 pbc="F F F"
C        2.03190923      -0.03650951      -0.12239756
C        4.51871300       0.06033896       0.26979619
O        5.95350647      -2.07369089       0.77297360
C        8.36547756      -1.17650568       1.06501186
O       10.22366428      -2.45465970       1.53904963
C        8.42976570       1.56913412       0.72888625
C        6.06620979       2.24890637       0.24921708
H        1.03891468      -1.82978404      -0.05793900
H        0.92904603       1.64659393      -0.51018828
H       10.10878754       2.70011640       0.86679846
H        5.41484022       4.14983845      -0.09945629
17
Properties=species:S:1:pos:R:3 energy=-1652.52001953125 pbc="F F F"
C        3.76645088      -1.70653605       2.42376280
C        6.46282578      -1.27811623       1.60668290
C        8.25468254      -2.99164438       2.16710019
C        6.90337753       1.13101995       0.12279440
O        6.25193214       3.23974657       1.70372033
C        9.59300613       1.62573135      -0.87433851
O        9.66759300       3.99108267      -2.18078184
H        3.14561915      -0.20448726       3.70380664
H        3.52847767      -3.50691605       3.41809893
H        2.51227760      -1.73155606       0.77796245
H        7.80536270      -4.69583702       3.22164297
H       10.21389389      -2.78381228       1.59765005
H        5.59905052       1.18890226      -1.48766804
H        6.99676752       2.90929008       3.35449076
H       10.20735550       0.14726636      -2.18114090
H       10.94935703       1.76196170       0.68247461
H        8.57946968       5.12478590      -1.20715702
15
Properties=species:S:1:pos:R:3 energy=-1484.8699951171875 pbc="F F F"
C        1.36950338       2.53198743      -1.06334889
C       -0.86547565       1.83360124       0.53694677
C       -2.79617095      -0.00657625      -0.39493388
C       -1.56051695      -2.55086565       0.09992871
C        1.26921570      -2.01401353      -0.04236766
N        1.61409068       0.59258032       0.88809568
H        1.42712116       1.96021295      -3.02601838
H        2.31194758       4.30526876      -0.66493791
H       -1.48061931       3.06077051       2.04999375
H       -4.59377289       0.16941395       0.61276257
H       -3.15202546       0.27066547      -2.41597700
H       -2.04791522      -3.19705749       2.00847650
H       -2.16950011      -3.99852824      -1.24270284
H        2.31854272      -3.33965635       1.15061641
H        1.97593546      -2.23414755      -1.97903454
12
Properties=species:S:1:pos:R:3 energy=-1314.530029296875 pbc="F F F"
C        1.84480739      -0.42337424      -0.68519580
C        4.36409569      -0.48832414      -0.60132974
O        5.75612450       1.57024908       0.12850137
C        8.34213924       1.39053607       0.21081784
C        9.78394413       3.35464191       0.87588805
C       12.45737743       3.18279004       0.96748310
N       14.64095592       3.03527808       1.03978395
H        0.76671857      -2.06548953      -1.26870549
H        0.81505775       1.27361870      -0.17145485
H        5.42961788      -2.15721679      -1.10548973
H        9.10847950      -0.43771726      -0.29394689
H        8.92869186       5.14927673       1.36695230
12
Properties=species:S:1:pos:R:3 energy=-1159.4100341796875 pbc="F F F"
C        1.74871480      -0.23098123      -0.19122139
C        4.57678461       0.07371822       0.21369024
C        5.34335184       2.80371118       0.15656380
C        6.40220308       4.02075148       2.10562730
H        1.23484159      -2.23499799      -0.16690060
H        1.16182256       0.55533379      -2.01461816
H        0.67230785       0.72334939       1.29788280
H        5.59848356      -0.93496090      -1.27813518
H        5.10664463      -0.80730993       2.01176476
H        5.02304316       3.82473016      -1.59984219
H        6.76856422       3.08348513       3.89342165
H        6.92641306       5.99831200       1.94830763
21
Properties=species:S:1:pos:R:3 energy=-1932.68994140625 pbc="F F F"
C        2.33418965      -0.55331182       2.16443563
C        5.11469507      -0.65462005       1.33552611
C        5.42041492      -2.80690479      -0.58177108
C        6.03824186       1.92374122       0.25441384
N        5.75000191       3.96443748       2.14451790
C        8.83240986       1.89709604      -0.64290375
N       10.62931252       1.58374166       1.45144200
H        2.06102991       0.74279463       3.75148439
H        1.68582463      -2.41573143       2.79397893
H        1.11280298       0.05500993       0.60879415
H        6.24337149      -1.14139462       3.00746131
H        4.48046494      -2.35586476      -2.36958432
H        4.60050058      -4.56436872       0.14367588
H        7.41224289      -3.19819140      -0.97241527
H        4.86629057       2.41913295      -1.38327956
H        6.52616930       3.34509873       3.79795265
H        3.87998581       4.22949076       2.51737976
H        9.25242043       3.69543505      -1.58510232
H        9.15024281       0.41830978      -2.04988050
H       10.39254856       3.10381842       2.61851788
H       12.41808987       1.74710846       0.75462437
18
Properties=species:S:1:pos:R:3 energy=-1780.5 pbc="F F F"
C        1.94097555       0.15450402       0.29574215
C        4.76649380      -0.23957948       0.42906231
C        5.68847227      -2.76230717       1.03857458
C        4.26371336      -4.80642414       1.49186325
C        6.31130743       1.75064230       0.01995551
C        9.13571072       1.85780871       0.02857266
N       10.00009060       3.42367363      -2.06872106
H        1.44184220       2.10519266      -0.18570338
H        1.05605459      -0.26637581       2.11964917
H        1.09982061      -1.05860567      -1.15566206
H        7.72115660      -3.02552724       1.16323984
H        2.21634650      -4.78028917       1.43906426
H        5.15018415      -6.60102129       1.94621003
H        5.43419075       3.57967043      -0.34823874
H       10.01728725       0.00018897      -0.13613588
H        9.76829720       2.71185160       1.80274200
H        9.56915760       2.52903938      -3.72085190
H       11.92103481       3.53473282      -2.01066852
14
Properties=species:S:1:pos:R:3 energy=-1364.5899658203125 pbc="F F F"
O        2.84209132      -0.73706877       2.04997492
C        3.44597220       0.32920918      -0.33550197
C        5.18385887       2.62416816      -0.03660399
C        4.02230120       5.18588114       0.28574550
C        1.63586032       5.57027006       1.03165817
N        7.60146093       2.16367984      -0.06360818
O        9.04358673       4.35767078       0.25488627
H        4.45412207      -1.17338765       2.82914686
H        1.69839132       0.84962088      -1.30398667
H        4.38941813      -1.10983610      -1.48345387
H        5.25007486       6.78806639      -0.07883938
H        0.35335988       4.03774023       1.49876070
H        0.91940844       7.47953606       1.25423014
H       10.76883125       3.70730257       0.23597011
19
Properties=species:S:1:pos:R:3 energy=-1796.6500244140625 pbc="F F F"
C        2.08527493      -0.41715705       0.70178759
C        4.93970633      -0.14180505       0.98552996
O        6.12172985      -1.93018520      -0.66807491
C        5.94284868       2.53620148       0.38915130
C        4.70398188       4.56041956       2.03873110
C        8.83144569       2.66519403       0.70836383
O       10.08314419       1.10671806      -1.08706498
H        1.06151581       0.68419427       2.11877990
H        1.53005457      -2.40140724       0.90574574
H        1.46706998       0.18258534      -1.18060637
H        5.47277927      -0.67389524       2.91488361
H        5.42750120      -1.66501880      -2.35571361
H        5.52637196       2.94521379      -1.60292244
H        4.96727753       4.15080214       4.05015564
H        2.67524743       4.70073175       1.66498101
H        5.52021122       6.42357588       1.65422845
H        9.40692425       2.07197142       2.60619688
H        9.51097298       4.59757137       0.41543740
H        9.33360291      -0.57990026      -0.91974860
16
Properties=species:S:1:pos:R:3 energy=-1555.5799560546875 pbc="F F F"
C        1.66180623       1.96973717      -1.03207397
O       -0.45978928       0.74334270       0.13275327
C        1.76938832      -0.74491113      -0.21227294
C        3.02949548      -1.64918292       2.16445446
C        2.38587379      -0.52695012       4.78652525
N        2.78547525      -3.07322383       5.89388561
C        2.17828727      -4.16369009       3.38474512
H        1.52831602       2.37805033      -3.03227353
H        2.66453266       3.37395477       0.06604593
H        1.75559342      -2.20457339      -1.64464760
H        5.08638668      -1.64357042       1.83456504
H        0.44419903       0.15820788       5.01474714
H        3.68220687       0.92742091       5.47722006
H        4.60932541      -3.38380027       6.43648291
H        3.29318786      -5.82759428       2.87298846
H        0.16926277      -4.61242485       3.14680982
17
Properties=species:S:1:pos:R:3 energy=-1693.31005859375 pbc="F F F"
C        2.89774394      -0.85593253       1.66441405
C        4.44707346       0.09758545      -0.09586581
C        5.67603827       2.63709402       0.03966535
O        8.33384323       2.24654412      -0.07247100
C        9.67721176       4.57540512      -0.03643392
C       12.43264008       3.95591497       0.00765339
C       14.12424755       4.75674295      -1.69533002
H        2.09075522      -2.72891569       1.44121850
H        2.42525554       0.18524985       3.36688733
H        4.88717175      -1.02833223      -1.75772882
H        5.18497372       3.62436247       1.79293442
H        5.06297302       3.78117204      -1.57383955
H        9.19261074       5.64396954       1.66987538
H        9.17567825       5.69826126      -1.70302117
H       13.05931187       2.75021291       1.54993451
H       13.58660221       5.94415236      -3.27944970
H       16.09657288       4.21146250      -1.54420865
19
Properties=species:S:1:pos:R:3 energy=-1785.25 pbc="F F F"
C        5.25398684      -2.04740477      -0.98124027
C        4.19254637       0.46530727      -0.08140940
C        6.22600508       2.41068578       0.24131803
N        6.54778767       4.43768167      -1.60840261
C        5.50407314       5.09632683       0.87311018
C        7.05980873       6.59068441       2.70174146
N        6.51369715       9.26464653       2.32145286
H        3.73236036      -3.42750978      -1.21942139
H        6.60342121      -2.81043839       0.38988829
H        6.23603964      -1.83762634      -2.78946257
H        3.24726748       0.18043105       1.73954964
H        2.74556422       1.11217940      -1.41685998
H        7.93707657       1.66503775       1.08738625
H        5.14449596       4.42356539      -2.93412113
H        3.51148915       5.57219744       0.95210069
H        9.08546352       6.24921083       2.43731213
H        6.56904697       6.04973125       4.63642406
H        6.99389553       9.71013069       0.50695682
H        7.68372107      10.30065155       3.44396925
22
Properties=species:S:1:pos:R:3 energy=-2055.090087890625 pbc="F F F"
C        5.32475710      -2.39488769       2.25882745
C        4.04607391       0.16926277       2.49683833
C        5.44496250       2.30797911       1.09643805
C        3.90695214       4.75749874       1.27584863
C        8.19693279       2.73114562       1.97208035
N        8.38921261       3.40424705       4.64940643
C       11.00837326       3.83686209       5.37812281
H        4.15125608      -3.85592937       3.13717222
H        7.16293144      -2.42238331       3.20633602
H        5.60078907      -2.90607762       0.27312213
H        3.81737900       0.63428658       4.50183773
H        2.13094974       0.00383614       1.71931064
H        5.52714682       1.79113913      -0.91222751
H        3.66302633       5.36818266       3.23863149
H        2.02334857       4.49796391       0.45670900
H        4.83527994       6.28730774       0.23502524
H        9.01694202       4.25114679       0.82324028
H        9.31266499       1.02820003       1.58612275
H        7.66533375       1.98186922       5.72740078
H       11.83386230       5.40435219       4.30952024
H       12.16295815       2.14289284       5.09887791
H       11.09053802       4.33937836       7.38210154
15
Properties=species:S:1:pos:R:3 energy=-1608.8599853515625 pbc="F F F"
C        1.73839688       0.38658127      -0.02966870
C        4.26080322       0.25010526      -0.06449635
C        5.80002308       2.44498444      -0.00334482
C        7.15620375       4.26683140       0.04503217
C        8.82847881       6.39540005       0.10446406
C        9.11411095       7.96899414      -2.25072050
C        7.74116850       9.02253532      -0.00291018
H        0.60127306      -1.31927454      -0.07817797
H        0.75354719       2.18456125       0.04745102
H        5.19512177      -1.57535124      -0.14256094
H       10.51267910       6.14918756       1.25213253
H        8.00735569       7.48212481      -3.90527034
H       10.97505665       8.70885944      -2.68048215
H        8.67072487      10.48433304       1.09067428
H        5.70942974       9.24733734      -0.13864921
16
Properties=species:S:1:pos:R:3 energy=-1547.77001953125 pbc="F F F"
C        1.66328025      -0.04083698       0.22417821
C        4.52300262      -0.01150843      -0.07129937
C        5.34541178       0.03688746      -2.83387113
C        5.91079855       1.92256963       1.60450971
O        7.55699587      -0.02704198       2.60523319
C        5.94504070      -1.97272289       1.54592824
H        1.10237169      -0.07725201       2.21574163
H        0.84514225      -1.70823681      -0.68804926
H        0.81662625       1.63946974      -0.63525033
H        7.40693283       0.05880828      -3.01719356
H        4.61174440       1.71864927      -3.79003477
H        4.64300060      -1.62915182      -3.83982897
H        4.79897833       2.79267502       3.11903071
H        6.97821045       3.38999867       0.61366969
H        7.03703785      -3.39011192       0.51007485
H        4.84843254      -2.90734363       3.03180099
20
Properties=species:S:1:pos:R:3 energy=-1853.3499755859375 pbc="F F F"
C        1.67187846      -0.77977657       0.16533214
C        4.41370106      -0.05593589      -0.40572420
C        5.49473763      -1.77534103      -2.50700521
O        8.01927948      -1.02837002      -3.09835720
N        4.87488890       2.65413928      -1.00860357
C        3.41622806       3.60264945      -3.16160631
C        4.46287155       4.27975750       1.19750059
H        0.90890157       0.31070876       1.74930060
H        1.55635953      -2.77876663       0.69315153
H        0.43930462      -0.50119317      -1.47137856
H        5.54404068      -0.47573856       1.28471136
H        4.36876345      -1.68272555      -4.24094248
H        5.54383278      -3.74815845      -1.88581443
H        8.03575802       0.80220765      -2.82088876
H        3.80974460       2.51983643      -4.87740183
H        3.96390843       5.55466080      -3.58486724
H        1.37812054       3.57897115      -2.81629658
H        5.57431412       3.62551522       2.81408572
H        2.47346258       4.36521053       1.75827682
H        5.09530640       6.20803404       0.79192752
14
Properties=species:S:1:pos:R:3 energy=-1557.4000244140625 pbc="F F F"
C        1.94246840      -0.03947638       0.13736419
C        4.76734447       0.08280780      -0.02405621
C        6.01333523       2.39394283      -0.17695396
C        8.63771152       2.41435194      -0.35592991
C        9.94152832       0.13386820      -0.39172134
C        8.55709553      -2.07843423      -0.24632581
N        6.01186132      -2.15457129      -0.06665064
H        1.11656356       1.82022202       0.50890326
H        1.37645757      -1.30466688       1.67261553
H        1.16996729      -0.75641960      -1.64202082
H        4.96801424       4.15968418      -0.15395598
H        9.65468597       4.19169617      -0.46912453
H       11.98434067       0.08462194      -0.53237367
H        9.48425198      -3.91005135      -0.27306542
14
Properties=species:S:1:pos:R:3 energy=-1375.3299560546875 pbc="F F F"
C        1.86168265      -0.38852769       0.00910848
C        4.66822815       0.19260089      -0.10244206
C        5.20982361       3.00515580      -0.11032221
O        3.53968382       4.62977219      -0.08471642
C        7.98617172       3.76692343      -0.19741969
O        8.30143452       6.42225313       0.01659179
H        1.54868722      -2.43279552       0.01746107
H        0.87180626       0.41033512      -1.62319911
H        1.00599575       0.40411794       1.71844137
H        5.47856188      -0.62459230      -1.82199836
H        5.61284590      -0.64292264       1.53799140
H        8.79283905       3.15342379      -1.99761057
H        8.99144936       2.86690354       1.36676335
H        6.62046671       7.16149521      -0.21901926
19
Properties=species:S:1:pos:R:3 energy=-1844.6600341796875 pbc="F F F"
C        1.46100402      -0.28334555      -0.16986749
C        4.31692839      -0.22206172       0.13800670
C        5.37778282       2.42714524      -0.31785193
C        8.18776798       2.48136163       0.08917618
C        9.84365940       3.14512801      -1.71161950
O       12.42079163       3.25926733      -1.58721876
C       13.57050133       2.52168846       0.72848940
H        0.74685758      -2.19518137       0.16669275
H        0.90755987       0.28251407      -2.08070183
H        0.54348522       0.98997080       1.17807412
H        5.17210484      -1.56491995      -1.18920469
H        4.80162382      -0.86485207       2.04825521
H        4.50019360       3.77149653       0.99237078
H        4.89609146       3.05100060      -2.23526263
H        8.82677841       1.95475161       1.96554196
H        9.25207996       3.70176554      -3.59624338
H       15.61864281       2.69850993       0.50931901
H       13.14504814       0.54431671       1.16717041
H       12.98462963       3.76333284       2.27660966
16
Properties=species:S:1:pos:R:3 energy=-1487.239990234375 pbc="F F F"
N        1.67238867       0.13006985      -0.38930249
C        4.41426802      -0.15949288      -0.32212272
C        5.70861721       2.27874517       0.54490250
C        8.52495098       1.95681143       0.65331614
C       10.16054726       2.66375804      -1.57000339
N       10.11475945       4.21539307       0.70957327
H        0.87184405      -1.48105395      -1.07631242
H        1.19836986       1.53714108      -1.61737883
H        5.09632683      -0.69602394      -2.20245695
H        4.89346457      -1.70865262       0.96582013
H        5.02789974       2.79670024       2.43334365
H        5.19863653       3.83459449      -0.72935867
H        9.10931110       0.41706255       1.87139583
H        9.28876019       3.49835539      -3.22275782
H       11.86959648       1.59439969      -1.91708934
H       11.69041252       3.91872501       1.78633916
15
Properties=species:S:1:pos:R:3 energy=-1422.1300048828125 pbc="F F F"
C        1.85457718       0.09480756      -0.20800215
C        4.66546917       0.12710299       0.03771893
O        5.55056047       0.29980505       2.60846448
C        6.27863407      -1.36574292      -1.76755536
C        6.25404882       1.47079277      -1.91438711
N        8.50845432       2.88823843      -1.12000287
H        1.25298285       0.02849707      -2.18573284
H        1.03855574       1.79070449       0.65067053
H        1.06828105      -1.56049800       0.75356609
H        6.78487253      -1.00969958       2.98176098
H        5.35639095      -2.39120269      -3.27946854
H        7.96544123      -2.28828835      -1.07190931
H        5.27798605       2.29237008      -3.52415037
H        9.24246120       2.09292841       0.47827080
H        7.96935320       4.65035152      -0.54881424
13
Properties=species:S:1:pos:R:3 energy=-1399.239990234375 pbc="F F F"
O        1.92795527      -0.15257649       0.65575385
C        4.18668842      -0.00631169       0.16451956
C        5.48657417       2.42327142      -0.01902954
C        7.92029572       2.74212480      -0.52626985
O        8.74274254       5.21269608      -0.58243251
C        6.44201946       6.67288733      -0.34417582
C        4.27839661       4.90091038       0.38197035
H        5.35754347      -1.69642603      -0.16659826
H        9.36937523       1.35211790      -0.86267889
H        6.07586622       7.59078407      -2.16547489
H        6.72974920       8.15021896       1.07633126
H        2.62040758       5.21074963      -0.81328142
H        3.73311615       5.16061544       2.36102390
16
Properties=species:S:1:pos:R:3 energy=-1612.550048828125 pbc="F F F"
C        1.75158715      -0.72110057       0.03044349
C        4.37335539       0.22062552       0.51893771
C        5.24637127       2.60831332       0.39506614
C        3.65002489       4.87562561      -0.24829112
N        7.77803707       2.98731685       0.90865594
C        9.10929298       5.20196247       0.89338690
O       11.37018013       5.30652094       1.38307166
H        1.82152593      -2.26171875      -1.34894323
H        0.46912453       0.71036696      -0.71480781
H        0.94136709      -1.46667314       1.78116131
H        5.68019533      -1.28883100       1.02360797
H        1.65778112       4.42700481      -0.54048055
H        4.33317995       5.76723623      -1.98678243
H        3.71945357       6.26451778       1.28531611
H        8.86294746       1.47215331       1.35618091
H        8.00867844       6.89561081       0.40581870
16
Properties=species:S:1:pos:R:3 energy=-1629.56005859375 pbc="F F F"
C        1.88972616       0.00000000       0.00000000
C        4.13880253       0.00000000       0.00000000
C        6.86756706       0.00000000       0.00000000
C        7.96245575       2.17424321       1.52767348
C       10.59323788       1.23794067       2.16398215
C       10.29216671      -1.61010337       2.39358377
N        7.82475138      -2.23339176       1.32384765
H       -0.12322904      -0.01275565       0.01621385
H        7.62067986       0.04112044      -1.93082774
H        6.89090538       2.50647616       3.27413940
H        8.00487995       3.94998121       0.46661118
H       11.89085579       1.68554127       0.61162877
H       11.32962608       2.10139441       3.89175868
H       11.82001019      -2.59697509       1.40716565
H       10.33460999      -2.19421768       4.37811756
H        7.91967201      -3.73460913       0.12770769
18
Properties=species:S:1:pos:R:3 energy=-1724.68994140625 pbc="F F F"
C        3.98125601      -0.50895995      -2.94476032
N        4.45480251       0.20843679      -0.32898241
C        5.80673170       2.61105347      -0.12918168
C        4.30266094       4.91323137      -0.93598133
C        5.76094341       7.03529930       0.31535751
O        6.81773520       6.03773165       2.60487413
C        6.46764421       3.34409714       2.58758307
H        3.03890634      -2.35146189      -2.98890424
H        5.74119568      -0.67336613      -4.01974964
H        2.72831106       0.83815020      -3.89149404
H        5.49110937      -1.17873561       0.51871091
H        7.57154703       2.52845359      -1.22097099
H        2.37976980       4.83871937      -0.16208181
H        4.16319895       5.15479517      -2.98399091
H        7.32983208       7.66920805      -0.87747544
H        4.56769466       8.66528225       0.75248897
H        8.18748379       2.41558027       3.26314139
H        4.92802763       2.90961123       3.90413642
16
Properties=species:S:1:pos:R:3 energy=-1552.800048828125 pbc="F F F"
C        1.99141228       0.11077575      -0.25269419
C        4.78079939       0.36322427      -0.03119938
O        6.17823267      -0.72928309      -2.07945466
C        6.40127707       1.96066642      -1.78412819
C        5.28630114       3.43778968      -3.92327929
C        8.94662476       2.80078197      -0.87515110
H        1.05694270       1.55344939       0.89813012
H        1.39724457      -1.74453843       0.44552183
H        1.30884326       0.29116902      -2.19482231
H        5.43914223       0.00417629       1.87269974
H        3.72332740       2.45016217      -4.84735537
H        6.71618128       3.79954004      -5.37538290
H        4.58772612       5.26097870      -3.24116373
H        9.67190170       1.58122838       0.63164097
H        8.83951569       4.72970104      -0.13537998
H       10.31794262       2.77324867      -2.42408395
14
Properties=species:S:1:pos:R:3 energy=-1335.010009765625 pbc="F F F"
C        3.11493015      -1.02674484      -0.75919747
O        5.68646955      -0.26408923      -0.62028372
C        5.91225386       2.30971766       0.15057337
C        8.65025902       2.94923878       0.29916254
C       10.07511234       3.87424088      -1.97979045
O        9.22959232       5.57321835      -0.03849372
H        3.05360842      -3.00292611      -1.35922337
H        2.09358978       0.11653941      -2.14720130
H        2.21239686      -0.87173069       1.09505844
H        5.04647589       2.55621362       2.01510954
H        4.92974758       3.52724934      -1.20781851
H        9.65287209       1.90722501       1.74272430
H        9.11320400       3.93132949      -3.78491354
H       12.08045197       3.48431492      -2.08848763
17
Properties=species:S:1:pos:R:3 energy=-1656.489990234375 pbc="F F F"
N        1.95673585       0.07154503       0.64171320
C        4.68189096       0.01160292       0.12237866
C        5.43385077      -2.46802020      -1.21855211
C        5.10297871      -1.91312099      -3.98057580
N        7.05714464      -0.66267025      -5.45724583
C        5.10040855       0.89888602      -4.32233286
C        5.42871094       2.09965587      -1.77173162
H        1.49592614       1.72942066       1.50786912
H        1.49889302      -1.33425999       1.87838781
H        5.68826485       0.23030092       1.91705155
H        4.27896357      -4.07606363      -0.61300826
H        7.41167593      -2.92924547      -0.80861384
H        3.67748260      -3.01396203      -4.94290018
H        8.72031116      -0.54373091      -4.49051857
H        3.67128444       1.73535442      -5.51934195
H        7.40464640       2.65037870      -1.48572159
H        4.26930714       3.80343294      -1.56909633
12
Properties=species:S:1:pos:R:3 energy=-1102.4599609375 pbc="F F F"
C        1.73628032      -0.40425020      -0.46475923
C        4.57274055      -0.03010334      -0.34432700
O        5.07053185       2.52960634       0.34451598
N        7.69649553       2.86777282       0.46991819
C        8.15016174       5.17531729       1.11236835
H        1.27019835      -2.35155630      -0.97591126
H        0.89159167       0.87225980      -1.85737407
H        0.86500323       0.03486545       1.36013043
H        5.42041492      -0.42668125      -2.19125080
H        5.39581060      -1.29909217       1.06954718
H       10.11387062       5.82833099       1.31687450
H        6.64423943       6.56849909       1.47918308
10
Properties=species:S:1:pos:R:3 energy=-1153.300048828125 pbc="F F F"
O        1.83482957       0.00026456      -0.51069850
C        4.11975431      -0.09643272      -0.14679393
O        5.50904322       2.11706018      -0.05429183
C        8.11121464       2.03173900       0.36042747
C        9.39027596      -0.10170506       0.68285257
C        7.78111744      -2.33766675       0.55556059
N        5.38095760      -2.34713435       0.17835236
H        8.90896225       3.91209221       0.37949482
H       11.39775085      -0.24146920       1.00716734
H        8.76494694      -4.15667963       0.81273341
20
Properties=species:S:1:pos:R:3 energy=-1921.18994140625 pbc="F F F"
C        3.32516217      -1.20957589      -1.94753289
C        5.28393888      -0.55448341       0.05121158
C        5.68365383       2.25038028       0.22291209
C        7.91933203       3.38266659      -0.20121804
C        8.51202583       6.16046953      -0.08639828
C        6.28893280       7.91339827       0.49765939
N       10.50597000       6.52155828       1.79248083
H        3.04283690      -3.25732088      -2.02754378
H        3.92813587      -0.57228464      -3.82216001
H        1.49947882      -0.33055091      -1.52463102
H        7.05517912      -1.53670645      -0.38344434
H        4.64411545      -1.24840975       1.89471495
H        4.03709745       3.36017871       0.74545914
H        9.52858543       2.20253253      -0.71199214
H        9.27651405       6.70180035      -1.93507957
H        5.46147871       7.52186584       2.35584593
H        4.79829788       7.71609211      -0.92598468
H        6.89207697       9.89498425       0.48454466
H        9.80040359       6.08748817       3.53191710
H       10.97696590       8.38588619       1.86801314
16
Properties=species:S:1:pos:R:3 energy=-1564.0 pbc="F F F"
C        1.87749958      -0.07630714      -0.03025451
C        4.76210976       0.00000000       0.00000000
N        5.77403927      -1.32872319      -2.19845080
C        5.67299557       2.57223845       0.00000000
C        6.42374611       4.69232225       0.00000000
C        7.33463192       7.26456070       0.00000000
O        5.36081266       8.91353607      -0.76998782
H        1.09891355       0.89117593       1.62760222
H        1.18448031      -2.02716589      -0.00126612
H        1.10108674       0.85340035      -1.71165729
H        5.42831373      -0.97279322       1.70218968
H        5.20298290      -0.40865329      -3.78956223
H        4.99685144      -3.08684874      -2.29068828
H        8.91546345       7.48392010      -1.31555176
H        7.96648073       7.83788490       1.88309324
H        6.11071301      10.57717514      -0.94988972
19
Properties=species:S:1:pos:R:3 energy=-1784.300048828125 pbc="F F F"
C        2.20693564       0.44760054       0.25465950
C        5.03249168      -0.15535438      -0.02059801
C        5.86710835      -1.91599333       2.12941909
N        5.42995787      -1.49874175      -2.42287445
C        6.52949524       2.28870392      -0.18666714
C        6.96849728       3.96838713       2.08485937
N        9.03907013       2.54353356       0.96236193
H        1.53823709       1.66951632      -1.28011942
H        1.83191943       1.44342947       2.03228712
H        1.05465615      -1.27439356       0.24305658
H        5.61182499      -1.02746296       3.98172855
H        7.86383057      -2.44300008       1.96142232
H        4.76318693      -3.67079306       2.13898110
H        4.59226131      -0.53929007      -3.86335611
H        4.56966019      -3.21886492      -2.35072494
H        6.25724220       3.25246429      -1.97907233
H        6.35543251       3.34730959       3.93397522
H        6.99916744       5.99687576       1.81177497
H       10.16272068       3.64741707      -0.15225524
22
Properties=species:S:1:pos:R:3 energy=-2061.070068359375 pbc="F F F"
C        5.51520348      -1.66972423      -1.90983284
C        4.63151073      -0.06408061       0.30772302
C        5.61038923       2.68278742       0.24551322
C        4.29804993       4.19179058       2.34252334
C        8.51571083       2.79634118       0.48288172
C        9.58595753       5.48268127       0.39759839
N       12.34391785       5.40782928       0.42704031
H        4.57035923      -3.51041198      -1.86967611
H        7.55079746      -2.01979589      -1.83747518
H        5.06537294      -0.76055807      -3.71257496
H        5.19850445      -0.98050332       2.07824516
H        2.55804658      -0.04533453       0.28667146
H        5.06539202       3.52331877      -1.57140172
H        4.90996218       3.55848670       4.21552563
H        2.24191451       3.97379160       2.23403430
H        4.69587517       6.21425104       2.17855191
H        9.36654091       1.71477532      -1.06671262
H        9.10150719       1.87271857       2.24595833
H        8.94299698       6.58594131       2.02408576
H        8.95543098       6.44712210      -1.32137215
H       12.94997215       4.55599737       2.04511833
H       13.02994537       7.20707512       0.47515273
8
Properties=species:S:1:pos:R:3 energy=-903.22998046875 pbc="F F F"
C        1.88972616       0.00000000       0.00000000
C        4.13880253       0.00000000       0.00000000
C        6.86756706       0.00000000       0.00000000
C        7.77845287       2.57223845       0.00000000
N        8.50450420       4.62257242       0.00000000
H       -0.12508097       0.01273675       0.00000000
H        7.58235598      -1.00879252      -1.66035116
H        7.58235598      -1.00877357       1.66037011
17
Properties=species:S:1:pos:R:3 energy=-1615.06005859375 pbc="F F F"
C        2.31092715      -0.20148259       0.42794737
C        4.73979235       0.70379072      -0.83140391
C        5.40210342      -0.93994975      -3.11581826
O        7.90619850      -0.41999164      -3.96483445
C        4.58583641       3.45107460      -1.68614590
N        2.39386725       4.48600197      -2.54120922
N        6.58327675       4.85984659      -1.72458291
H        1.75449729       1.07064319       1.96274519
H        2.56781650      -2.09296608       1.22856760
H        0.74018681      -0.29916254      -0.91731083
H        6.27649879       0.58199787       0.55720466
H        4.09970427      -0.64201558      -4.69731092
H        5.34119749      -2.94419336      -2.60511971
H        7.88363504       1.27698243      -4.69188786
H        0.75870615       3.92728543      -1.72244763
H        2.53361249       6.39479542      -2.70438719
H        8.12334728       3.87089610      -1.06841338
17
Properties=species:S:1:pos:R:3 energy=-1636.6600341796875 pbc="F F F"
C        3.60688257      -1.31252813      -2.36550260
O        3.23698759       0.76176751      -0.69763023
C        5.54927540       1.96525848       0.13460520
C        7.07897091       0.46215144       1.98247385
C        6.80586767       3.73345637      -1.70884156
C        5.32812071       4.79803371       0.46481594
O        6.82153320       5.95601988       2.41406846
H        4.86732960      -0.80045021      -3.92180538
H        1.77207184      -1.84382474      -3.15323472
H        4.36887693      -2.93311954      -1.33503485
H        8.76670456       1.47874844       2.61594796
H        7.72098637      -1.31037390       1.13209713
H        5.94092083       0.00727545       3.64915562
H        5.99817991       3.92095494      -3.57967043
H        8.84616661       3.89124846      -1.65836692
H        3.49210048       5.62254000       0.06510106
H        6.86611223       7.78157091       2.20489454
13
Properties=species:S:1:pos:R:3 energy=-1322.0999755859375 pbc="F F F"
O        2.58437061       0.23901255       2.21056390
C        4.91415739       0.10334912       0.80500442
C        5.01797867       1.57506788      -1.62083697
N        7.46670485       2.21594954      -2.77288961
C        8.42991734      -0.08894941      -3.47823000
N        7.13764668      -2.12021613      -2.96310949
C        4.84578705      -1.30869210      -1.67210531
H        1.15101326       0.72195095       1.16945696
H        6.63531971      -0.05888387       1.90892577
H        3.41044545       2.64865899      -2.27774358
H        7.65102863       3.64422345      -4.03456545
H       10.22030067      -0.05083363      -4.53587198
H        3.12738347      -2.32254910      -2.10970926
17
Properties=species:S:1:pos:R:3 energy=-1598.25 pbc="F F F"
C        5.20458937      -1.36028159       1.15573764
N        5.63042021       0.43985265      -0.89213973
N        6.28505898       2.85881543       0.05973424
C        4.26516867       4.60915565       0.70354503
C        8.74461365       3.78886318      -0.19783543
C       10.70605469       1.94626677      -1.14458823
O        9.31990242       5.99162245       0.29404140
H        4.78973770      -3.22196412       0.35757399
H        3.60402894      -0.80347377       2.34176755
H        6.88493347      -1.54968882       2.34772015
H        4.03428173       0.59562278      -1.96879232
H        2.60262537       3.58392239       1.37747812
H        3.77905536       5.70281553      -0.98231745
H        4.90385818       5.90692472       2.18053603
H       10.71406651       0.22977181       0.00396843
H       12.57805538       2.81293297      -1.00123358
H       10.34519196       1.48763025      -3.12645745
15
Properties=species:S:1:pos:R:3 energy=-1522.5699462890625 pbc="F F F"
C        2.20689774       0.05567133      -0.67538810
N        4.94375038      -0.23105681      -0.81772232
C        6.22385073       2.10923672      -0.05801459
C        9.07735634       1.92298532       0.08182514
C       10.41749287      -0.21599570      -0.23884249
C       10.40222454       4.22176170       0.60119748
N       11.45888329       6.09757948       1.01508534
H        1.30024493      -1.71299899      -1.24712479
H        1.53476000       1.55263674      -1.93560863
H        1.59577918       0.47050402       1.25714028
H        5.42523384      -0.63536370      -2.64011741
H        5.54043150       2.68445039       1.81472290
H        5.72171259       3.61228704      -1.39737689
H        9.50399971      -2.01652670      -0.60325730
H       12.46754360      -0.23621577      -0.11187179
17
Properties=species:S:1:pos:R:3 energy=-1621.3299560546875 pbc="F F F"
C        2.09608412       0.32110226       0.20892812
C        4.93044662      -0.05892166      -0.15287885
N        5.44898748      -1.30854082      -2.55640268
C        6.30624294       2.42493439      -0.17903265
C        7.26083803       3.56835103       2.25276136
C        9.10502148       2.52898264       0.35901016
H        1.71367919       1.26730704       2.01021504
H        1.09638131      -1.49144745       0.21720512
H        1.28469253       1.49707890      -1.29094756
H        5.64561367      -1.26105201       1.37530494
H        4.72080040      -0.26167038      -3.99790454
H        4.52434444      -2.99568844      -2.60827565
H        5.58117390       3.71461582      -1.59923744
H        7.00379753       2.53096700       4.00009680
H        7.14847469       5.60290575       2.46240759
H       10.23220539       3.85129976      -0.72495562
H       10.07023716       0.77660185       0.80128169
16
Properties=species:S:1:pos:R:3 energy=-1555.8900146484375 pbc="F F F"
C        1.19408011       0.50400883      -0.06876713
C        3.92458320      -0.03488434       0.40857768
C        5.80119467       1.59424853      -0.09359813
C        8.55715275       1.03781867       0.36757064
C        9.72861290       2.86338854       2.27623177
O        8.82577705       2.37328815       4.76347065
H        0.42675686      -0.87758881      -1.40223348
H        0.89576799       2.39445305      -0.85334361
H        0.13039111       0.36418802       1.69848585
H        4.35780287      -1.88076878       1.20778072
H        5.36445999       3.43253636      -0.90961969
H        9.55596733       1.20549405      -1.43900752
H        8.79590034      -0.90892047       1.03698719
H        9.32394695       4.83724546       1.80270422
H       11.78231049       2.62280750       2.30656195
H        6.98737574       2.39246893       4.68349743
21
Properties=species:S:1:pos:R:3 energy=-1920.3499755859375 pbc="F F F"
C        2.01569533      -0.18332233       0.32535416
N        4.76823235      -0.17638704       0.18249086
C        5.72740078       2.40495992      -0.17708623
C        8.66652966       2.55833006      -0.29542089
C        9.69482422       1.12988615      -2.59858131
N        9.40579033       5.25508261      -0.34634900
C       12.12588120       5.64020872      -0.13900825
H        1.34656215      -2.12072635       0.60189664
H        1.16492164       0.54012150      -1.41629303
H        1.34446454       0.94159383       1.92684031
H        5.30306292      -1.27104867      -1.31164002
H        5.07313967       3.57090211       1.40986800
H        4.93031454       3.21580362      -1.91336656
H        9.42245770       1.68860257       1.42986131
H        9.00826740       1.96206486      -4.36560774
H        9.12968254      -0.85855925      -2.56885600
H       11.76259995       1.13918364      -2.64365125
H        8.55976009       6.14255476       1.14198041
H       13.11458588       5.04934835      -1.85435045
H       12.92209816       4.65048361       1.49345052
H       12.50718975       7.65926790       0.10174286
17
Properties=species:S:1:pos:R:3 energy=-1634.050048828125 pbc="F F F"
C        2.91390109      -1.20505941      -1.80310106
O        4.24260521      -0.16094798       0.28306207
C        5.66120386       2.15058398      -0.14787108
C        7.97621298       1.65579689      -1.78877699
C        4.15174723       4.55055523      -0.83539122
O        5.37254810       5.98650122       1.15511405
C        6.30002546       3.66166568       2.27160192
H        1.67779338      -2.70457602      -1.10290086
H        4.24179268      -2.02635336      -3.15614510
H        1.75205958       0.23041430      -2.73084331
H        9.15600681       3.34768772      -1.97610557
H        7.43083763       1.07582104      -3.69796729
H        9.14801311       0.15769765      -0.97135705
H        2.10772491       4.45191145      -0.52802730
H        4.52861547       5.35380220      -2.70225167
H        8.30217171       3.79502368       2.76708817
H        5.20963478       3.15572929       3.95580149
18
Properties=species:S:1:pos:R:3 energy=-1718.8800048828125 pbc="F F F"
C        1.63455641      -0.07061907      -0.44153452
C        4.36857462       0.34776631       0.15987083
C        5.11135006       0.08379046       2.87589860
O        6.06687117      -0.86681736      -1.57474661
C        5.96669674       1.84418368      -1.69897723
C        8.36630917       3.15315914      -1.00248086
N        9.89585304       3.45623350      -3.27644491
H        1.25895441       0.06874824      -2.47193193
H        0.46804738       1.34117639       0.51978809
H        1.03169596      -1.94815648       0.18413492
H        7.14722776      -0.17774764       3.12286687
H        4.18062210      -1.55624616       3.72863746
H        4.54227781       1.76744199       3.93406963
H        5.02425289       2.71525311      -3.29568243
H        9.45511246       2.09640551       0.40190697
H        7.93603706       5.01457739      -0.21076116
H       10.25866222       1.70232201      -3.99488115
H       11.60703850       4.18988180      -2.78876328
14
Properties=species:S:1:pos:R:3 energy=-1350.0799560546875 pbc="F F F"
C        2.10377550       0.13452961       0.79863608
C        4.36558867       0.16293219      -0.95306450
N        5.59770918      -1.92532861      -1.31392658
N        4.91733217       2.47709084      -2.05732584
C        5.92198610       2.42587924      -4.65014362
C        7.60418224       3.05784154      -2.48296785
H        1.35739028       2.04088521       1.07531083
H        2.66096115      -0.64382970       2.63057446
H        0.62769145      -1.05794430      -0.02050353
H        4.79816580      -3.35929060      -0.28406364
H        5.19506502       3.93915296      -5.81081343
H        6.05592966       0.57561058      -5.50836277
H        8.92746353       1.65470088      -1.80761755
H        8.05552483       5.01544666      -2.12410879
17
Properties=species:S:1:pos:R:3 energy=-1572.449951171875 pbc="F F F"
C        4.44151783       0.11686067       3.20667624
C        4.66127396       0.45846647       0.36173138
N        5.72517109       2.92858410      -0.26792538
C        4.02165842       5.08147335      -0.18313336
C        8.30190659       3.29156280      -0.29009187
N       10.02855015       1.57512450      -0.07681737
O       12.40911388       2.72334099      -0.20165268
H        3.65197134      -1.74361253       3.64393997
H        3.20204639       1.54917860       4.03804255
H        6.28796911       0.26599786       4.12629271
H        2.79004836       0.25433823      -0.50535059
H        5.82647943      -1.05766082      -0.43749049
H        2.10290623       4.54872179      -0.74449539
H        4.65118313       6.56772423      -1.47846508
H        3.95035911       5.86684370       1.72934508
H        8.82507801       5.30085182      -0.52865088
H       13.54253292       1.27736044      -0.06963640
15
Properties=species:S:1:pos:R:3 energy=-1543.1500244140625 pbc="F F F"
C        5.70580149      -1.04229736       2.19217682
C        5.01332998       0.46217033      -0.15953068
C        5.41106081       3.26246095       0.18615693
C        3.46970725       4.89524126       0.34997728
C        8.08101654       4.14025784       0.10287669
O        8.53230286       6.22337818       1.49681425
O        9.74127388       3.02282476      -1.04284537
H        5.35903645      -3.05608392       1.87256742
H        4.57045364      -0.44966033       3.81807828
H        7.70339298      -0.81184524       2.67946148
H        3.03248143       0.07082693      -0.63303936
H        6.12197590      -0.21794212      -1.77307332
H        1.52833486       4.21866226       0.32756513
H        3.71212125       6.93151569       0.41713816
H        7.11364746       6.73076963       2.55489087
14
Properties=species:S:1:pos:R:3 energy=-1429.7099609375 pbc="F F F"
C        0.75564480       2.59644580       0.58674109
C        2.53268647       0.56100297      -0.40481713
O        1.86149359      -1.91909254       0.45852315
C       -0.67090946      -2.43967414       0.35851884
C       -2.50409508      -0.73669082      -0.00183303
C       -1.94783521       2.02346206      -0.23169932
H        1.33142543       4.46642447      -0.08643607
H        0.84160841       2.62282658       2.65869355
H        4.46211576       0.93754983       0.24179046
H        2.56806231       0.55102527      -2.47792220
H       -1.01631355      -4.43577290       0.64687216
H       -4.46266365      -1.34338737      -0.07749767
H       -2.24074268       2.60317326      -2.19862080
H       -3.26743102       3.10965776       0.93647265
14
Properties=species:S:1:pos:R:3 energy=-1444.4000244140625 pbc="F F F"
C        1.78174722      -0.29464608       0.01761225
C        4.63411856       0.05903504       0.01456979
C        5.37870836       2.78398228      -0.00274010
C        5.81136131       4.26547098       2.10908556
S        6.61426830       7.25401592       1.17227268
N        6.42240429       6.68757057      -1.90216053
C        5.76239872       4.28402805      -2.22384858
H        1.30820072      -2.30820608       0.02906399
H        0.91980529       0.55913216      -1.65968978
H        0.92122257       0.57789713       1.68599474
H        5.43963337      -0.88990980      -1.64230430
H        5.44118309      -0.87337470       1.68026888
H        5.69761896       3.76187778       4.08428383
H        5.55970669       3.63154340      -4.15297556
17
Properties=species:S:1:pos:R:3 energy=-1687.280029296875 pbc="F F F"
C       -0.70804256       0.31892908      -0.58424664
C        0.94233084       1.10484731      -2.75278306
C        2.10515499       0.52235812      -0.22744744
O        3.41163588      -1.85814881      -0.04558019
C        6.09079504      -1.44492245       0.17071787
C        7.70942116      -3.60899901      -0.71083939
C        7.54832220      -1.23805404      -2.25733447
H       -1.88556874       1.74051332       0.29768854
H       -1.53264344      -1.55445087      -0.62943000
H        0.88497764       3.06188536      -3.34868908
H        1.22692358      -0.23649922      -4.27342653
H        2.76007724       2.09307957       0.91971081
H        6.77206039      -0.40132114       1.80077672
H        6.76601315      -5.28384447      -1.41738904
H        9.44235706      -3.98178530       0.31061429
H        9.17558384       0.00444086      -2.28953552
H        6.50553322      -1.31152666      -4.01840830
19
Properties=species:S:1:pos:R:3 energy=-1781.5999755859375 pbc="F F F"
C        3.65747046      -1.11578882      -2.53060794
C        4.57909012      -0.17043440       0.02447195
C        5.97074080       2.32904959      -0.18164048
N        8.39701653       2.14695573      -1.56558144
C        4.53165770       4.74366617      -1.01797652
N        5.88366222       6.20756149       0.95383924
C        6.42493677       3.81218243       2.31226897
H        2.57862568      -2.86522174      -2.29573369
H        5.23459816      -1.51367068      -3.80825162
H        2.43092489       0.27593780      -3.44663382
H        5.79527998      -1.60636175       0.89302790
H        2.93421555       0.03739768       1.26802516
H        9.43169880       3.76879430      -1.54286695
H        8.19239712       1.68614590      -3.42469406
H        2.48510337       4.67304707      -0.69320822
H        4.84544659       5.40174437      -2.95477581
H        7.47709846       7.06693316       0.29899246
H        8.31364250       3.69724917       3.15053248
H        5.04401922       3.42065001       3.80893207
13
Properties=species:S:1:pos:R:3 energy=-1300.0899658203125 pbc="F F F"
C        1.87685704      -0.05992322       0.02003110
C        4.76210976       0.00000000       0.00000000
C        5.78273201      -1.44403422      -2.28356385
C        5.67299557       2.57223845       0.00000000
C        6.42374611       4.69232225       0.00000000
H        1.12485945       0.92269659       1.68210196
H        1.17979383      -2.00908113       0.06969310
H        1.08415473       0.85931516      -1.65976536
H        5.43281126      -0.95650381       1.71262097
H        5.16305304      -0.58564502      -4.06330824
H        5.13410234      -3.40865016      -2.26064157
H        7.85302162      -1.46011579      -2.28431988
H        7.09582710       6.59072208      -0.00030236
17
Properties=species:S:1:pos:R:3 energy=-1723.77001953125 pbc="F F F"
C        1.82676041       0.21115799       0.04212200
C        4.62281799      -0.01562803       0.00546131
C        6.05778170      -2.08601189      -0.14743644
C        5.24795866      -4.76609707      -0.32699820
C        8.77001095      -1.36528933      -0.10140271
O        8.81593132       1.35122979      -0.04571247
C        6.26476336       2.25788260       0.16695730
H        0.89824355      -1.63145721      -0.08883603
H        1.17890561       1.36096191      -1.55036914
H        1.20237601       1.11180151       1.79605246
H        6.88313866      -6.02731943      -0.46526948
H        4.07991886      -5.07043743      -2.00743723
H        4.16949177      -5.32001352       1.35036051
H        9.72834778      -2.07654452       1.58644402
H        9.77560997      -2.00356317      -1.79059112
H        5.90898466       3.58679461      -1.37740242
H        6.05764961       3.23107266       1.97916687
15
Properties=species:S:1:pos:R:3 energy=-1533.8499755859375 pbc="F F F"
C        1.20774281      -0.26233178       0.51738811
C        3.82079959       0.18704510      -0.45364764
C        4.94737864       2.42912960      -0.83147949
C        3.85271692       4.96085215      -0.16249755
O        7.46606207       2.43128395      -1.73474967
C        7.89363194       3.78266478      -3.89408302
O        6.37909174       4.96372461      -5.17206717
H        0.18587346      -1.49636078      -0.79147398
H        0.10501208       1.47166204       0.72215885
H        1.29300725      -1.20392561       2.35639405
H        4.87309361      -1.51620281      -0.92725080
H        2.55226421       4.84125137       1.44014144
H        2.83504272       5.76784086      -1.77050328
H        5.35242271       6.27470350       0.39281738
H        9.91970158       3.63271499      -4.34909153
16
Properties=species:S:1:pos:R:3 energy=-1608.8599853515625 pbc="F F F"
C        1.92081213      -0.19617248       0.69558930
N        4.63137865      -0.24953833       0.15272766
C        5.93903112      -2.52231193       0.32180145
C        4.94420385      -4.75988007       0.95323455
C        5.75353575       2.05963135      -0.51784164
C        8.55125618       2.06000924      -1.09035313
O        4.56803513       4.06166410      -0.65741682
H        1.10919368       1.69327021       0.49565628
H        1.60365939      -0.81876165       2.64308429
H        0.93662387      -1.45044041      -0.62317497
H        7.94832039      -2.47767663      -0.09597919
H        2.96683216      -5.03266191       1.40828061
H        6.13790607      -6.42769575       1.02946615
H        9.62639713       1.46958327       0.57185000
H        9.14440346       3.97968769      -1.58183300
H        8.95584679       0.83801794      -2.70616341
21
Properties=species:S:1:pos:R:3 energy=-2050.889892578125 pbc="F F F"
C        6.05426693       1.94477391      -4.63128424
C        6.07648993       0.30570099      -2.26891851
C        7.18778133       1.63860047       0.05064466
C        9.90717316       2.51452637      -0.23876689
C       11.82647324       0.43021506      -0.49327523
C       10.45175362       5.00369263      -0.20216291
C       12.97829914       6.25559807      -0.39345989
H        5.09387016       0.95382035      -6.17297935
H        7.97290564       2.38283134      -5.26734686
H        5.05399704       3.72383761      -4.29279613
H        7.10710859      -1.44715226      -2.65882587
H        4.12804985      -0.24787538      -1.83078563
H        7.08567953       0.35020405       1.67314458
H        5.95962954       3.23934960       0.53588855
H       11.46443939      -0.68262577      -2.19860196
H       11.72518349      -0.83163071       1.14377558
H       13.76973534       1.10821104      -0.62374192
H        8.89520550       6.33823586      -0.00394953
H       14.56797409       4.94269228      -0.37176582
H       13.22579670       7.55255508       1.19971156
H       13.07890797       7.36025667      -2.13935900
16
Properties=species:S:1:pos:R:3 energy=-1553.3299560546875 pbc="F F F"
C        1.89482844      -0.11765435      -0.14384596
O        4.57723808      -0.00712427      -0.20015979
C        5.46888638       2.52949286       0.00000000
C        8.19765091       2.52949286       0.00000000
C       10.44672775       2.52949286       0.00000000
C       13.17549229       2.52949286       0.00000000
N       14.11797428       5.10023832      -0.26295540
H        1.32224143      -2.09608412      -0.30551201
H        1.09339559       0.93303341      -1.73437178
H        1.17569315       0.63279366       1.64145386
H        4.75388956       3.37219739       1.75145483
H        4.74897623       3.63282847      -1.59759343
H       13.89991856       1.37222469      -1.55535793
H       13.90037155       1.72057676       1.76046884
H       13.46278667       5.83078766      -1.91845000
H       16.03466606       5.05029297      -0.41443583
16
Properties=species:S:1:pos:R:3 energy=-1553.300048828125 pbc="F F F"
C        2.81947136       4.63045263      -1.95970273
C        5.52748680       3.82866073      -2.14661551
O        6.60446072       3.31618595      -4.12585783
O        6.59200716       3.78572607       0.19101351
C        9.19845009       3.00326610       0.27773306
C       10.97358322       5.19767284      -0.38234830
N       10.77943230       7.25567913       1.46115518
H        2.70914912       6.55421257      -1.21545291
H        1.78199279       3.32038116      -0.74502450
H        1.96265066       4.59802485      -3.84009361
H        9.51169109       1.39352190      -0.99029207
H        9.56904411       2.33003235       2.20100188
H       10.52065372       5.95322323      -2.25363064
H       12.92652035       4.51805162      -0.41914126
H        8.93834782       7.81498146       1.57931972
H       11.77133083       8.77653027       0.81978208
13
Properties=species:S:1:pos:R:3 energy=-1341.9599609375 pbc="F F F"
N        3.33068013      -1.31993592       0.23436384
C        4.42696714       0.72161084      -0.51453465
C        4.06691742       1.06266856      -3.19777560
C        3.76104641       1.33679223      -5.43230104
N        5.75926161       2.36467099       1.00108242
C        8.00380230       3.63076854      -0.03119938
C        5.63898039       5.08674574       0.46959695
H        3.65431452      -1.45170653       2.13943458
H        3.46847892       1.54451096      -7.41163826
H        8.51177979       3.15123177      -1.95012176
H        9.53380108       3.74804497       1.31800842
H        5.52253580       6.21753931       2.16745925
H        4.44798088       5.65326691      -1.08952165
15
Properties=species:S:1:pos:R:3 energy=-1496.969970703125 pbc="F F F"
C        2.68448830      -0.81881833       1.87704611
C        4.37099314      -0.27261189       0.07139385
C        5.55343246       2.27625060      -0.30392465
C        8.36281300       2.01588416       0.06190743
N        9.86901951       1.83970511      -1.85833776
N       12.36028290       1.57829928      -1.06387806
C       13.82279873       1.14770627      -2.96705890
H        1.89983618      -2.70862007       2.03551841
H        2.04260492       0.58751583       3.22540355
H        4.94261646      -1.75098240      -1.24185240
H        4.84682608       3.66907334       1.05291760
H        5.15299988       2.95413327      -2.21710229
H        9.05993271       1.93065763       2.02841306
H       15.86534691       0.89368927      -2.66751862
H       13.12798405       1.00890589      -4.92863274
15
Properties=species:S:1:pos:R:3 energy=-1511.1600341796875 pbc="F F F"
O        4.71630287      -2.52801895       2.29607391
C        4.06185293      -0.31480947       2.51097369
C        5.62450504       1.89649141       1.63931847
C        8.14946270       1.14468277       0.48303288
C       10.01088047       3.33051014       0.08809903
O       11.44495583       2.58682728       2.29830384
C       10.15213776       0.16863915       2.34378958
H        2.22959328       0.17527209       3.37907600
H        5.89689016       3.13586831       3.27682281
H        4.49669790       2.93168330       0.24842340
H        7.92685318      -0.04457864      -1.19884229
H        9.23888969       5.23773479       0.27718502
H       11.16712856       3.21389508      -1.62284017
H       11.37055779      -1.34028828       1.62463534
H        9.49542046      -0.30997178       4.24226522
16
Properties=species:S:1:pos:R:3 energy=-1514.9100341796875 pbc="F F F"
N        2.28530240       0.28876904       0.10984978
C        5.00635719      -0.18213181      -0.24322665
C        5.44594526      -1.54821479      -2.78022170
O        3.98703861      -0.38928360      -4.74296713
C        6.32589626       2.33103395      -0.20743524
C        7.39500856       3.41311002       2.20360970
O        8.97376156       2.19567275       0.37057531
H        2.01333308       1.10297644       1.83479178
H        1.37033486      -1.40735459       0.19001196
H        5.70636845      -1.37636316       1.29518044
H        4.83187866      -3.51946378      -2.64476609
H        7.43769741      -1.51493680      -3.34080911
H        2.52250099       0.33546418      -3.87129307
H        5.74100685       3.60854554      -1.69612372
H        7.08116293       2.42984772       3.97122169
H        7.54503393       5.44809914       2.37086940
18
Properties=species:S:1:pos:R:3 energy=-1667.77001953125 pbc="F F F"
C        2.11832619      -1.67565799       0.44289511
C        4.69003582      -0.43282288      -0.01392728
N        6.01314640      -1.81141591      -2.04046965
C        4.49134970       2.39044690      -0.75199759
O        3.00952125       2.65903354      -3.01562500
C        3.32253528       4.03870392       1.32286501
O        3.37146044       6.62435961       0.52604306
H        1.13353336      -0.78737330       2.02964139
H        2.34193754      -3.67922115       0.91869038
H        0.89539003      -1.55533910      -1.22265279
H        5.82398462      -0.60361630       1.71099579
H        5.17779303      -1.30243707      -3.71304727
H        5.71475840      -3.70416570      -1.85930157
H        6.37606812       3.12679744      -1.20515394
H        2.58040214       4.45302629      -3.11383414
H        4.34540653       3.87408972       3.11239791
H        1.33450568       3.56413698       1.63028562
H        5.12922716       7.17007446       0.54477024
20
Properties=species:S:1:pos:R:3 energy=-1911.75 pbc="F F F"
C        1.29334748      -0.48284394       0.65598065
C        3.93267131      -0.77588373      -0.44317856
C        5.56766224       1.53993785       0.11841024
C        8.21418571       1.36672556      -1.03725183
C        9.76279736      -0.71664083       0.10098697
C       10.18456554      -3.15440655      -1.31160223
N       12.20969105      -1.30585742      -1.03970838
H        0.15650712      -2.16301823       0.24963282
H        0.32835880       1.15719271      -0.15588351
H        1.36869085      -0.24145031       2.70943260
H        3.79164100      -1.06062770      -2.49016762
H        4.79841137      -2.47765779       0.35753620
H        5.71901035       1.80070114       2.17001033
H        4.63423204       3.23071361      -0.63581723
H        9.19000244       3.16381741      -0.69666642
H        8.06450081       1.15125895      -3.09412408
H        9.70982838      -0.73939312       2.14812732
H        9.41248035      -3.35823226      -3.19575357
H       10.36883259      -4.89040327      -0.24179046
H       13.47745132      -1.86104012       0.30691043
12
Properties=species:S:1:pos:R:3 energy=-1110.1099853515625 pbc="F F F"
C        1.85750628      -0.06563019       0.22714508
N        4.53575850       0.19985743      -0.45495155
S        5.63573027       3.17111158      -0.27068436
O        5.18667459       4.45678663      -2.62709737
O        5.27997017       4.23421478       2.20716238
C        8.99791241       3.06831050      -0.35269848
C       11.26996803       2.98756242      -0.40980601
H        1.32428229      -2.05630541       0.06349480
H        0.66605288       1.02166152      -1.06472838
H        1.52837265       0.53061622       2.17721009
H        4.91391134      -0.50722140      -2.21003461
H       13.27910519       2.93379974      -0.45103982
17
Properties=species:S:1:pos:R:3 energy=-1754.5400390625 pbc="F F F"
C        1.82483292      -0.35356775      -0.01107380
C        4.66051817      -0.07538117      -0.00931635
C        6.02263260      -2.59321451      -0.01863270
C        5.93188810       2.15048933       0.00000000
C        4.71976089       4.73244095       0.00557469
C        8.58884335       2.15048933       0.00000000
C       10.83791924       2.15048933       0.00000000
H        0.78945202       1.42662990       0.01224543
H        1.22244489      -1.42432439       1.65492761
H        1.22098982      -1.38618970      -1.70031893
H        4.68699312      -4.17455626       0.01838703
H        7.23160410      -2.78659010       1.64965534
H        7.16525555      -2.80507159      -1.73081911
H        2.65997839       4.71250439      -0.03014113
H        5.34010172       5.81068087      -1.65114820
H        5.28779364       5.77849913       1.70098031
H       12.85021305       2.14742804       0.00000000
17
Properties=species:S:1:pos:R:3 energy=-1746.0400390625 pbc="F F F"
O        2.05509615       0.09074465       0.65654755
C        4.32437372       0.03356154       0.15395598
C        5.76047087      -2.43309808       0.01455089
C        7.55448246      -2.44916058      -2.23412871
C        9.24448395      -0.11107811      -2.27111077
C        7.66195107       2.30121398      -2.29989123
C        5.86928129       2.42907286      -0.05359263
H        4.41262388      -3.99442744      -0.15223634
H        6.80138874      -2.66489172       1.78822899
H        8.72439289      -4.15677404      -2.17826843
H        6.45730782      -2.52163172      -3.99208426
H       10.48631668      -0.11608588      -0.61174214
H       10.46273327      -0.16176055      -3.94472766
H        8.90775299       3.95506454      -2.28993225
H        6.56916046       2.37470555      -4.06054926
H        6.91804171       2.66608238       1.71449184
H        4.59091949       4.04246426      -0.26826552
14
Properties=species:S:1:pos:R:3 energy=-1275.7900390625 pbc="F F F"
C        1.85610795      -0.07012774      -0.08664394
C        4.71985579       0.09066906       0.14756872
N        5.97236586      -1.24612319      -1.95350444
C        5.63244200       2.85065198       0.20463844
O        8.32802296       2.89857531       0.22997966
H        0.94134820       0.88716972       1.50295591
H        1.22227490      -2.04007268      -0.08568018
H        1.18727708       0.81573808      -1.83362019
H        5.32498360      -0.83826363       1.90076208
H        5.34115982      -0.53144771      -3.63194036
H        5.41553926      -3.09357619      -1.94029522
H        4.94739771       3.82754588       1.89324105
H        4.99106884       3.89349723      -1.46406531
H        8.82218647       1.42876530      -0.78404737
15
Properties=species:S:1:pos:R:3 energy=-1449.31005859375 pbc="F F F"
C        1.90030861       0.00270231      -0.06173735
C        4.74661398      -0.15915273       0.13806339
N        5.72148609      -2.57896590       0.20427939
C        6.08771515       1.99604213       0.23717953
C        8.85971642       2.10466361       0.52933121
N       10.06513500       4.23334551       0.47879991
O       12.64954281       3.76444793       0.80118722
H        1.21441364       1.95628226      -0.06249324
H        1.01555777      -0.97156489       1.53640401
H        1.25356877      -0.89113814      -1.81355131
H        4.55875635      -3.91454887      -0.54841745
H        7.52298069      -2.75516391      -0.43705586
H        5.17287970       3.82969999       0.14823012
H        9.86089325       0.29693267       0.80228323
H       13.36325550       5.46361399       0.76806027
13
Properties=species:S:1:pos:R:3 energy=-1414.02001953125 pbc="F F F"
O        4.95609045      -1.54492676      -1.62975645
C        4.11750555       0.43416458      -0.77807581
C        1.43065500       0.78317809      -0.44841310
C       -0.80664849       1.07160699      -0.18587346
C        5.81472492       2.50760984       0.04268891
C        7.41439724       3.86271358      -1.89915586
C        5.30276060       5.24125004      -0.60335177
H       -2.79303408       1.31137550       0.03422294
H        6.72589445       2.12915444       1.84168935
H        7.17574358       3.36333466      -3.87333393
H        9.34076500       4.33440828      -1.38664329
H        5.79552555       6.65950823       0.79136062
H        3.65206575       5.71472073      -1.72116256
15
Properties=species:S:1:pos:R:3 energy=-1550.6099853515625 pbc="F F F"
C        2.46248317       0.69073272      -1.29882765
C        4.79650307      -0.83820695      -0.63723457
O        6.93429327       0.80334145      -0.74438202
C        9.24756336      -0.22491521      -0.21737520
C        9.83649731      -2.60351348       0.42692694
C       12.38320541      -3.31724405       0.89805454
C       14.52898884      -3.93202877       1.29344189
H        0.77057362      -0.49546731      -1.26447248
H        2.65111566       1.53253007      -3.17965317
H        2.21150875       2.25081491       0.03709532
H        5.01365137      -2.38009119      -2.00360107
H        4.58810377      -1.61511111       1.27159667
H       10.67147255       1.24190915      -0.39952591
H        8.41102028      -4.06111574       0.61045712
H       16.43560982      -4.47489023       1.64202082
21
Properties=species:S:1:pos:R:3 energy=-2046.1400146484375 pbc="F F F"
C        1.98759508       0.18368138      -0.16529435
C        4.80408049       0.11997871      -0.10204521
C        6.36102581      -1.28833973      -2.04404116
C        5.19593430      -2.71863556      -4.17527437
C        6.47410727       1.58801246      -1.93776298
C        5.32488918       3.15366936      -4.02494669
C        8.85104275       2.75573087      -0.86574024
H        1.29376316       1.67352259       1.09005070
H        1.23244154      -1.61881495       0.51253152
H        1.20090210       0.52889657      -2.04131985
H        5.44258118      -0.03082143       1.84648919
H        7.99650860      -2.31550026      -1.34185672
H        3.45062113      -1.87714052      -4.88866472
H        4.75383282      -4.64454985      -3.56185031
H        6.53144169      -2.84543633      -5.74935961
H        3.64870214       2.30539036      -4.87951851
H        6.70701599       3.43780875      -5.54001570
H        4.77926874       5.01317883      -3.29834700
H        9.65897655       1.61201203       0.65896642
H        8.44650936       4.63495016      -0.10111924
H       10.28717804       2.94544053      -2.34303355
20
Properties=species:S:1:pos:R:3 energy=-1912.97998046875 pbc="F F F"
C        1.72154045      -0.05731539       0.22109796
C        4.59810066      -0.09286115      -0.05671068
C        5.35453892       0.05914843      -2.85006595
C        5.96350336       1.95533741       1.58253229
C        7.93616962      -0.07630714       2.29265356
C        5.88534403      -2.07200909       1.73129153
N        6.98310518      -4.16728067       0.32276523
H        1.14468277      -0.05943189       2.20852304
H        0.87987536      -1.71883821      -0.67988569
H        0.91341799       1.63128722      -0.66113961
H        7.40706491       0.12814233      -3.09907532
H        4.57270241       1.76390815      -3.72667217
H        4.63793612      -1.57410407      -3.89869404
H        4.86732960       2.62828779       3.20686531
H        6.71030426       3.59896445       0.57581848
H        9.58879185      -0.08035115       1.03987849
H        8.60118294      -0.01022342       4.24882221
H        4.78081799      -2.63066888       3.38997960
H        8.21331692      -3.67444015      -1.07287312
H        5.67401600      -5.31787825      -0.49554288
19
Properties=species:S:1:pos:R:3 energy=-1929.3699951171875 pbc="F F F"
C        1.85234737       0.19883698       0.03150174
C        4.65927076       0.01776343      -0.04764000
C        6.09873199      -2.06240940      -0.20611243
C        5.24172258      -4.73882866      -0.33605000
C        8.85620117      -1.42417324      -0.15694176
C        8.86485672       1.42551494      -0.60960674
C        6.23774052       2.36183643       0.12903050
H        0.94788665      -1.65694964      -0.08551010
H        1.16365552       1.33769929      -1.55184305
H        1.24105871       1.09107113       1.79452169
H        6.85501957      -6.02943563      -0.44510609
H        4.07487297      -5.05227709      -2.01465583
H        4.15119934      -5.24089098       1.34809279
H        9.67260075      -1.89805984       1.68444514
H        9.91624355      -2.40407181      -1.63748550
H        9.20239925       1.81105685      -2.62106895
H       10.36227512       2.38094163       0.45190910
H        5.59476089       3.84115171      -1.16480827
H        6.21665096       3.10051155       2.06195569
18
Properties=species:S:1:pos:R:3 energy=-1717.6400146484375 pbc="F F F"
C        3.99618506      -1.36207676       1.07257080
C        3.99123383      -2.14793825      -1.70400381
C        4.95565557      -4.89114046      -1.95416582
N        5.17059326      -5.66519117      -4.61008120
O        1.44314611      -2.09699130      -2.64686370
C        0.47668341       0.10074130      -3.58288288
C        1.54929197       2.37920308      -3.78213573
H        3.30889153       0.57572395       1.29967809
H        5.89800549      -1.47266352       1.87816095
H        2.73456597      -2.57078338       2.18448567
H        5.24021053      -0.92252648      -2.81393456
H        3.63966918      -6.18448782      -1.01160824
H        6.81134796      -5.08871126      -1.05975842
H        3.49296975      -5.26245260      -5.48150969
H        5.37918091      -7.57680035      -4.69967318
H       -1.44760585      -0.23249301      -4.21199179
H        3.45914364       2.78498387      -3.17371941
H        0.48847532       3.93854833      -4.59246922
17
Properties=species:S:1:pos:R:3 energy=-1717.3800048828125 pbc="F F F"
O        1.97219384      -0.19099462      -0.18833011
C        4.64368057       0.11650161      -0.05644612
C        6.36525917      -1.13997734      -2.07798076
C        8.37088203      -0.59428108       0.01916182
C        6.22441769      -1.45151758       1.85862124
C        8.42950153       2.28968668       0.24783759
C        5.58126831       2.83082867       0.18443727
H        1.33461905       0.42970482       1.41954339
H        6.60909033      -0.12364478      -3.86231685
H        5.98737049      -3.13384628      -2.49124479
H       10.14010048      -1.64434516      -0.00043464
H        5.82899237      -3.48287868       1.92625451
H        6.33555269      -0.72786582       3.79226470
H        9.29416466       2.91314507       2.01960707
H        9.41892433       3.17685628      -1.33648992
H        5.05331659       3.99920845      -1.43881857
H        4.93122149       3.74358535       1.92268300
17
Properties=species:S:1:pos:R:3 energy=-1572.1600341796875 pbc="F F F"
C        1.85795987      -0.19027652       0.21034542
N        4.60153961      -0.01175410       0.27642915
C        5.96274757      -2.26432657      -0.54932451
C        5.85546780       2.30915093       0.32134792
C        4.39771414       4.67590046       1.08082891
N        8.23837471       2.45065355      -0.33000287
O        9.16262054       4.92621374      -0.25609568
H        1.07912815       1.04749405      -1.25400341
H        1.05518532       0.33589882       2.04222703
H        1.21375215      -2.11411214      -0.20068891
H        4.97192621      -3.99044013       0.01976654
H        7.84606743      -2.35905862       0.30432150
H        6.15878773      -2.27160192      -2.60872912
H        2.66113114       4.22650480       2.09718037
H        3.92307138       5.74626017      -0.62257028
H        5.54056358       5.85866117       2.33326364
H       10.92051983       4.69702768      -0.75347161
17
Properties=species:S:1:pos:R:3 energy=-1640.489990234375 pbc="F F F"
C        4.28810978      -2.23976016      -0.27826217
N        6.60774851      -0.99486524       0.53522712
N        6.82053185       1.46746683      -0.13649492
C        8.98999405       2.44710088       0.42902452
C        9.56467915       5.11832333      -0.14509317
C       11.82208920       6.09351635       0.45187131
C       12.54719543       8.77154160      -0.07150724
H        4.32528067      -4.22848892       0.28640690
H        4.09972286      -2.16710019      -2.33753443
H        2.62872243      -1.34882987       0.57780266
H        6.78632784      -1.21637893       2.44681740
H       10.50897503       1.34739363       1.35213685
H        8.08234024       6.19884968      -1.05815220
H       13.25474739       4.93337584       1.36220908
H       11.02473831       9.82944870      -0.99061334
H       14.20548725       8.82409477      -1.30615985
H       13.02263165       9.73137188       1.69761658
16
Properties=species:S:1:pos:R:3 energy=-1480.9300537109375 pbc="F F F"
C        2.33024025       0.06033896      -0.75592822
N        5.07725954       0.18523096      -0.89145941
C        6.04937220       2.13416219       0.81492549
C        8.87955856       2.09311748       0.67024809
C       10.26382065       3.67130327      -1.25426793
N       10.31454086       4.33677053       1.42137647
H        1.64759552      -1.43549263      -2.01012063
H        1.46075833       1.83961058      -1.35444236
H        1.69206083      -0.39506614       1.15927136
H        5.59406185       0.62695444      -2.69414473
H        5.48071623       1.73278439       2.76627564
H        5.30138111       3.99699759       0.29345557
H        9.67105103       0.28636909       1.22556293
H        9.19310188       4.92795229      -2.46284223
H       11.99943924       2.93888330      -2.05530405
H       11.99033165       3.82185769       2.23029256
14
Properties=species:S:1:pos:R:3 energy=-1429.8699951171875 pbc="F F F"
C        1.94819427       0.00693529      -0.23770864
C        4.79017210      -0.05474536      -0.04465423
C        5.89101315      -2.67398143      -0.09510992
C        6.09105968       2.12376881       0.15234973
C        8.86776638       2.37708640       0.34574428
O        9.86389828       4.46092510       0.53027606
H        1.19761395       1.93545747      -0.20452505
H        1.10023630      -1.02347565       1.34359527
H        1.33155775      -0.87535894      -2.00524521
H        5.09642124      -3.80609751       1.44382632
H        7.94189548      -2.72077107       0.11117259
H        5.42806816      -3.60108113      -1.88813877
H        5.11739731       3.93195319       0.17725632
H        9.99026394       0.63220787       0.31356224
17
Properties=species:S:1:pos:R:3 energy=-1652.25 pbc="F F F"
C        1.78632033       0.11614257      -0.35141346
C        4.57678461       0.00837149       0.03524339
O        5.30423450      -0.28468725       2.64083552
C        6.23862839      -1.31247151      -1.85824335
C        6.42979336       1.51094937      -1.55823040
C        5.59203959       3.23447418      -3.62644124
O        8.61312580       2.40588593      -0.19025762
H        1.25895441       0.08651166      -2.34951544
H        1.01533091       1.83987510       0.49652556
H        0.88142496      -1.50611174       0.55557948
H        6.65742970       0.91462743       3.01594615
H        5.36754036      -2.05573869      -3.55946922
H        7.74961567      -2.48644495      -1.13687813
H        4.04187870       2.44158292      -4.74349594
H        7.16113615       3.60975480      -4.92250967
H        4.96064472       5.04252625      -2.84150553
H       10.16254997       1.75500751      -0.93987417
16
Properties=species:S:1:pos:R:3 energy=-1559.9300537109375 pbc="F F F"
C        1.94133461       0.10831910       0.43779287
C        4.61877394       0.49338859      -0.56506592
C        5.16222143      -0.57593185      -3.15501118
C        3.52789187      -1.71305561      -4.72151852
C        5.12958622       3.30554676      -0.67055041
N        6.65621996       4.36462498       0.92354697
O        6.70864105       6.96772242       0.45274058
H        1.75136042       0.93445069       2.32804823
H        1.47532809      -1.90321875       0.57986248
H        0.52848083       1.02604568      -0.76800358
H        5.94549417      -0.37089655       0.77295470
H        7.12043142      -0.40566751      -3.77814841
H        1.54974556      -1.98362660      -4.25515318
H        4.15509224      -2.42370605      -6.54310131
H        4.09171057       4.42050409      -2.10082746
H        7.82828522       7.58643770       1.78116131
17
Properties=species:S:1:pos:R:3 energy=-1716.3299560546875 pbc="F F F"
C       -2.29265356      -0.00292908       1.89719057
C       -1.16826653      -1.91179812       0.00247554
C        1.64950418      -2.40554571       0.41290516
C        3.15157175      -0.00056692      -0.19252530
C        1.65069473       2.40269232       0.42044517
C       -1.16641462       1.91157138       0.00765339
O       -1.52967656       0.00400622      -1.99551296
H       -1.50834155      -0.00580146       3.80630517
H       -4.35937166      -0.00207870       1.98954141
H       -2.32088614      -3.59970140      -0.30212942
H        1.98634779      -2.99139857       2.36992455
H        2.30004239      -3.94618273      -0.80695087
H        3.55527401       0.00245664      -2.22948003
H        4.98872566      -0.00285349       0.75983995
H        2.30221558       3.94729781      -0.79462981
H        1.98821867       2.98274374       2.37959981
H       -2.31876945       3.60206366      -0.29063988
15
Properties=species:S:1:pos:R:3 energy=-1500.3599853515625 pbc="F F F"
C       -2.61785650       1.47893751       1.12130678
C       -2.25680542      -0.56646430      -0.82131279
O       -0.66981345      -2.64710951      -0.05209975
C        1.85752523      -2.37270236      -0.96173835
C        2.96295834       0.05544456       0.10399163
O        1.66688967       2.24726224      -0.81454754
C       -1.03485179       1.98638558      -1.17907572
H       -4.45707035       2.37370396       1.22756612
H       -1.68839467       1.27737927       2.93077636
H       -3.85456896      -1.01548219      -2.02510619
H        2.94653654      -4.00880814      -0.32200933
H        1.82925487      -2.35962534      -3.03159308
H        2.85715246       0.07524890       2.17214561
H        4.94889021       0.23551656      -0.44382107
H       -1.85947156       3.20758343      -2.60768986
17
Properties=species:S:1:pos:R:3 energy=-1557.4200439453125 pbc="F F F"
C        1.92011297      -1.27203131       1.00977516
N        4.20326138      -0.20403373      -0.13808230
C        5.47533035      -2.15283275      -1.64476097
C        3.61228704       1.99738383      -1.76636481
C        2.67568207       4.28667355      -0.24698721
O        4.37227821       4.80071688       1.78492188
H        1.05308771       0.06343810       2.33022141
H        2.38708305      -2.95420885       2.12722683
H        0.50843084      -1.80926156      -0.40802968
H        5.98712492      -3.77344298      -0.45909005
H        7.24517202      -1.42407870      -2.43791676
H        4.29162455      -2.83237815      -3.20267010
H        2.24117732       1.51270688      -3.24312901
H        5.36438465       2.58329344      -2.70810986
H        0.79073703       3.96515560       0.54068846
H        2.58350134       5.96514750      -1.45306706
H        5.00520420       3.13860846       2.29854941
17
Properties=species:S:1:pos:R:3 energy=-1637.2900390625 pbc="F F F"
N        1.92221057      -0.05483985      -0.11593470
C        4.67992544      -0.16903600      -0.10261213
C        6.00169468      -1.43768477      -2.25400853
C        6.15636873       1.40096736      -1.98400462
C        8.56270790       2.79293966      -1.23227155
C       11.18615818       1.92428923      -1.95323980
N       10.01770306       4.05582476      -3.22642398
H        1.28962469       1.42026150       0.94941729
H        1.16552639      -1.64734983       0.66028923
H        5.52004099      -0.41602319       1.75748312
H        4.88138914      -2.17173004      -3.80420756
H        7.66015625      -2.55685616      -1.82636356
H        5.00529861       2.45838261      -3.33052897
H        8.40848732       3.87694335       0.50892216
H       11.38945484       0.22459395      -3.07278919
H       12.73713207       2.33761001      -0.68636745
H       10.72427177       5.73250294      -2.58607125
18
Properties=species:S:1:pos:R:3 energy=-1715.4200439453125 pbc="F F F"
C        4.60463905      -3.00574160      -0.70386630
C        3.55550075      -0.35394570      -0.34092548
C        5.55658865       1.52491450       0.43337089
C        6.96802473       1.10201263       2.86883092
N        5.23348331       1.23811078       5.00681067
C        6.71773052       3.21075797      -1.57261121
O        4.77418518       4.11340475       0.08475421
H        3.14936090      -4.24897385      -1.48392630
H        5.22635889      -3.81715226       1.09709942
H        6.21854067      -3.00009131      -1.99311304
H        2.04060197      -0.39602992       1.07077551
H        2.67411375       0.24723287      -2.11951685
H        8.44499683       2.53391480       3.11319160
H        7.91449451      -0.73822153       2.85002828
H        4.32316446       2.93533039       4.92252874
H        6.24853086       1.25606322       6.64176369
H        6.21961784       2.91403317      -3.53212500
H        8.60806179       3.94009781      -1.28954911
19
Properties=species:S:1:pos:R:3 energy=-1763.3699951171875 pbc="F F F"
C        5.06123447      -1.11541080      -0.03834254
C        3.04225111       0.88641381       0.42862767
N        4.10588360       3.12337708       1.72807896
C        2.29076385       5.24608755       1.54789352
C        2.58389807       6.66468620      -0.94053560
N        4.95835781       2.63306880       4.11276197
C        6.94604731       3.93149972       4.68194771
H        4.24247313      -2.71890020      -1.05794430
H        5.85183954      -1.83475399       1.73253870
H        6.60824013      -0.35634565      -1.18427253
H        1.49991345       0.07001435       1.54876280
H        2.25676775       1.40748692      -1.41434658
H        2.65795660       6.60763550       3.06883955
H        0.33886570       4.60021687       1.81005526
H        4.51640749       7.37493992      -1.16082096
H        1.30564964       8.29196739      -0.98150486
H        2.14122987       5.47759819      -2.57431722
H        7.81622839       3.70802069       6.55833244
H        7.85562944       5.28448677       3.37833905
10
Properties=species:S:1:pos:R:3 energy=-1123.239990234375 pbc="F F F"
C        1.74992418      -0.23360795       0.09361703
C        4.25273418       0.05642722      -0.13927281
C        5.60677958       2.50447297       0.13226193
O        7.91103601       2.55918050      -0.11901495
C        4.29075527       4.84128952       0.68665087
C        3.21758008       6.78912449       1.14608109
H        0.90117258      -2.08867645      -0.13222414
H        0.48297620       1.32513261       0.50742924
H        5.46601391      -1.54403853      -0.55425668
H        2.28760791       8.52755928       1.55295801
16
Properties=species:S:1:pos:R:3 energy=-1549.52001953125 pbc="F F F"
C        2.01609206      -0.62944889      -0.72582489
N        4.53955698      -0.68105727       0.36263844
C        5.70714283      -3.16015124       0.59086066
C        5.82508087       1.58704865       0.64917761
O        4.87299919       3.65992713       0.15104581
C        8.54330063       1.49724889       1.64092481
O        9.62386513       3.95343924       1.83705950
H        1.14798975       1.23777068      -0.56202346
H        0.82290012      -2.00095534       0.25819328
H        2.15128303      -1.13462937      -2.72496629
H        4.39185572      -4.44157457       1.54135513
H        7.46039295      -3.10635066       1.67301238
H        6.11275387      -3.87034798      -1.30812514
H        9.71965504       0.39589763       0.34655687
H        8.56165028       0.64734459       3.52638006
H        8.30090523       5.12187576       1.27552736
14
Properties=species:S:1:pos:R:3 energy=-1420.6500244140625 pbc="F F F"
C        1.90148020      -0.06411841       0.48826745
N        4.64989805       0.08628490       0.67895973
C        5.59491205       2.61855578       0.00000000
C        4.65305376       4.56210136       1.91092885
O        3.27527332       6.35165310       1.36578071
C        8.32367706       2.61855578       0.00000000
C       10.57275295       2.61855578       0.00000000
H        1.30370319      -2.01898336       0.79701090
H        1.22388113       0.51736921      -1.38220239
H        0.97286880       1.08978617       1.93543863
H        5.41417885      -1.17372775      -0.56202346
H        4.89958763       3.15916848      -1.87634683
H        5.25821972       4.25135469       3.88433218
H       12.58725834       2.61422825       0.00285349
15
Properties=species:S:1:pos:R:3 energy=-1506.72998046875 pbc="F F F"
C        1.86069989      -0.00931635      -0.03314580
C        4.76210976       0.00000000       0.00000000
C        5.69707060      -1.36770821       2.38441873
C        5.75060654      -1.38664329      -2.34815478
C        5.67299557       2.57223845       0.00000000
N        6.39904737       4.62257242       0.00000000
H        1.12072098       0.95177948      -1.71451068
H        1.08252966       0.96513981       1.62291574
H        1.11501396      -1.94220388      -0.03395838
H        5.02536774      -0.42843872       4.10454178
H        7.76679325      -1.40244138       2.47087359
H        5.03075314      -3.32737303       2.43459082
H        5.11598015      -0.46555293      -4.09458303
H        5.08948612      -3.35016322      -2.39715528
H        7.82373095      -1.41977012      -2.39129734
17
Properties=species:S:1:pos:R:3 energy=-1615.4200439453125 pbc="F F F"
C        2.19236588      -0.22565220       1.03179049
N        4.93683386      -0.17780434       0.81980097
C        5.82149029       2.30230999      -0.04694080
C        8.71638107       2.33458662      -0.23954168
C        9.68027306       4.85727644      -1.12512410
C       11.02709961       5.20175457      -3.23957634
H        1.58464873      -2.09623551       1.66995096
H        1.28267050       0.15299223      -0.78703314
H        1.52693653       1.15269518       2.42317700
H        5.49951887      -1.52824044      -0.43529841
H        5.20729160       3.76835966       1.28463578
H        4.99815559       2.74167132      -1.89902353
H        9.34981728       0.82921183      -1.51750672
H        9.54687786       1.93500400       1.61798346
H        9.26149082       6.48011637       0.06640498
H       11.51070023       3.64004707      -4.47919893
H       11.68631172       7.07048607      -3.77162886
14
Properties=species:S:1:pos:R:3 energy=-1448.22998046875 pbc="F F F"
C        2.03591537      -0.25549096      -0.41473821
N        4.70445442      -0.00092597       0.21667600
C        5.59491205       2.61855578       0.00000000
C        4.56255484       4.18597031       2.06486607
C        3.72141886       5.46446419       3.74201679
C        8.32367706       2.61855578       0.00000000
C       10.57275295       2.61855578       0.00000000
H        1.49902523      -2.25013471      -0.30126014
H        1.64338148       0.39073867      -2.34084153
H        0.82437414       0.77461761       0.90714413
H        5.72889376      -1.07697380      -1.00627911
H        4.96226978       3.40441728      -1.81326783
H        2.98308396       6.58465624       5.24351740
H       12.58599186       2.61623144       0.02112714
19
Properties=species:S:1:pos:R:3 energy=-1924.0899658203125 pbc="F F F"
C        1.82885802       0.08558570       0.00196532
C        4.70500231      -0.00831479       0.05610597
C        5.82394695       2.11220360       1.67184067
C        8.49630356       1.20145011       2.22432113
C        8.19576073      -1.61964643       2.72604322
C        5.87701035      -2.33698654       1.23306525
C        4.99505663      -4.70490789       1.09093893
H        1.05805767      -1.37167656      -1.24886334
H        1.17627895       1.92007518      -0.69946325
H        1.02194500      -0.19974405       1.88721275
H        5.42884302       0.17449731      -1.88012636
H        4.77152061       2.34579253       3.44361019
H        5.82022429       3.92860842       0.68272024
H        9.71158600       1.51045811       0.57183111
H        9.34533787       2.19162869       3.82936001
H        9.87361145      -2.66243505       2.12083960
H        7.87159729      -1.95641458       4.74217319
H        3.30418611      -5.16902447       0.02726875
H        5.95386553      -6.25117636       2.04011059
17
Properties=species:S:1:pos:R:3 energy=-1746.8299560546875 pbc="F F F"
C        1.58844709       0.05123048       0.41265950
C        4.34480143       0.29570433      -0.44217703
C        4.92458868      -1.38896763      -2.74441147
C        4.76929092      -4.10280323      -2.14221239
C        4.63708544      -6.31754351      -1.66611481
C        4.88998747       3.03168774      -1.07455492
C        6.63208818       4.44068623       0.10238536
H        1.19217157       1.31753600       2.00309086
H        1.16647124      -1.87460828       1.04021859
H        0.27495515       0.52447462      -1.11709273
H        5.55099487      -0.29691377       1.14060092
H        6.83604670      -0.98182613      -3.44003844
H        3.62515616      -0.95181727      -4.30005312
H        4.51534939      -8.28348255      -1.24633110
H        3.77901769       3.88633513      -2.58151698
H        7.78933764       3.68574071       1.61900401
H        6.93467140       6.39848042      -0.43295515
19
Properties=species:S:1:pos:R:3 energy=-1915.6199951171875 pbc="F F F"
C        1.41058612       0.02853487       0.06988207
C        4.21442938       0.04571247       0.33627677
C        5.92706919      -1.60396171      -1.24143672
C        5.16702127      -2.79739928      -3.70293736
C        5.67365694      -0.73776799      -5.67350578
C        5.20207596       1.76018536      -4.29117107
C        5.94698715       1.21864665      -1.60443413
H        0.62752134       1.80230737       0.78901738
H        0.61030596      -1.51822484       1.18493390
H        0.76686978      -0.20044325      -1.87918150
H        4.73722219       0.29447603       2.30669427
H        7.55508709      -2.48054910      -0.36843991
H        6.28524780      -4.49076414      -4.10548687
H        3.17275572      -3.34273648      -3.69205236
H        7.66170549      -0.82894725      -6.25709105
H        4.50629759      -0.94777322      -7.36649275
H        6.34532261       3.27818346      -5.10607767
H        3.21657848       2.32158518      -4.42303610
H        7.58866787       2.26529026      -0.97833014
17
Properties=species:S:1:pos:R:3 energy=-1654.050048828125 pbc="F F F"
C        1.90491951       0.10833800      -0.41804522
C        4.73166656      -0.10081689       0.05045569
C        5.50063372      -2.46282339       1.50675428
N        5.43214989      -1.51253676       4.10508966
C        6.70423794      -3.16068029       5.90044308
N        5.94649553       1.00104463       4.20641708
C        5.53245687       1.84148145       1.94980049
H        1.25585532      -1.40973568      -1.66568017
H        1.44743574       1.91948926      -1.31131876
H        0.81728768       0.00198421       1.34157324
H        5.80357552       0.12081019      -1.70226526
H        7.42371368      -3.01878071       0.97092241
H        4.22159147      -4.06068134       1.20528626
H        5.98616123      -5.09734726       5.76309776
H        6.35237122      -2.51543331       7.83624077
H        8.75081158      -3.18717432       5.59033918
H        5.71506119       3.84007478       1.41616082
6
Properties=species:S:1:pos:R:3 energy=-785.0399780273438 pbc="F F F"
N        1.55584931       0.00000000       0.00000000
C        3.74738359       0.00000000       0.00000000
C        6.64064884       0.00000000       0.00000000
C        8.90835762       0.00000000       0.00000000
C       11.80162334       0.00000000       0.00000000
N       13.99315739       0.00000000       0.00000000
18
Properties=species:S:1:pos:R:3 energy=-1802.0 pbc="F F F"
C        6.43259001      -1.36547828      -1.20007062
C        5.11641455      -0.03112379       0.98205286
C        5.97637224       2.72789526       1.35064399
C        4.36570215       3.99765897       3.39871025
C        8.81891727       3.03552389       1.89994955
C        9.65973186       1.70489204       4.19018412
N       10.32884598       0.65754908       5.99676228
H        5.60585356      -3.24088025      -1.48538148
H        8.44979668      -1.62480545      -0.82962757
H        6.21863508      -0.29940820      -2.95980239
H        5.40064812      -1.12315869       2.71941042
H        3.07685208      -0.05251549       0.60764146
H        5.59551668       3.74180889      -0.42110658
H        4.56788397       3.05406189       5.22923136
H        2.36113715       3.94988656       2.88340092
H        4.90382051       5.98257065       3.63216710
H        9.25737190       5.05223942       2.09549832
H        9.92306519       2.37187076       0.27956608
13
Properties=species:S:1:pos:R:3 energy=-1345.6700439453125 pbc="F F F"
C        1.68807352       0.15448511      -0.13330129
C        4.51353550       0.13562565      -0.13090134
N        5.77859354       2.00753164       0.80088484
N        8.36687565       1.56669641       0.59343070
C        9.63119698       3.42524195       1.51841390
C       12.31050777       3.04801488       1.34282053
C       14.55650330       2.74278641       1.20107210
H        1.00814998      -1.48347282       0.92536110
H        1.02065992       0.00548021      -2.08221364
H        0.95729744       1.88638127       0.72108167
H        5.45049906      -1.53784025      -0.95533216
H        8.85126972       5.15441704       2.37092590
H       16.54581833       2.45524549       1.06699610
19
Properties=species:S:1:pos:R:3 energy=-1780.77001953125 pbc="F F F"
C        1.87430596       0.19832675      -0.25985625
C        4.68196678       0.10036335      -0.07617486
C        6.28768587      -1.55679417      -1.79013753
C        5.19187117      -3.20896292      -3.80806279
N        7.08176756      -3.49102330      -5.79953194
N        6.19098854       1.19668794      -2.11027598
C        8.47767067       2.46170855      -1.22637558
H        1.15520847       1.81640482       0.81031460
H        1.04893029      -1.51722336       0.54781270
H        1.20180917       0.39064419      -2.20623636
H        5.31613970       0.33964047       1.85901809
H        7.97613716      -2.38782024      -0.97167826
H        3.46532321      -2.41389847      -4.62361193
H        4.73100519      -5.06490088      -3.02067065
H        7.52373695      -1.71717525      -6.42327356
H        6.27510023      -4.38728285      -7.29800892
H        8.04121971       4.42859221      -0.75532353
H        9.88916397       2.47756314      -2.73917699
H        9.34660435       1.59069586       0.44189355
15
Properties=species:S:1:pos:R:3 energy=-1405.02001953125 pbc="F F F"
C        3.90183091      -0.95608807      -2.58833909
O        4.33423805       0.07163952      -0.14821123
C        5.81763506       2.36497331      -0.07921732
C        4.51293039       4.84737444      -0.89115703
N        5.78061533       6.16139555       1.23191249
C        6.04364634       3.68345428       2.51518774
H        2.79462147      -2.68813539      -2.38668633
H        5.70126581      -1.41272151      -3.49727845
H        2.84224248       0.38423800      -3.75123858
H        7.66901875       2.08397102      -0.97659159
H        2.44706297       4.82834482      -0.73550034
H        5.02844763       5.55065489      -2.76550078
H        7.47435808       6.94332647       0.74351275
H        7.84264708       3.41362023       3.49703264
H        4.50015593       3.26720428       3.83272362
9
Properties=species:S:1:pos:R:3 energy=-1062.6700439453125 pbc="F F F"
C        1.88972616       0.00000000       0.00000000
C        4.13880253       0.00000000       0.00000000
C        6.79575777       0.00000000       0.00000000
C        8.03734493       2.15048933       0.00000000
C       10.69430065       2.15048933       0.00000000
N       12.86939430       2.15048933       0.00000000
H       -0.12031886      -0.00519675      -0.00000000
H        7.75910234      -1.81481743       0.00000000
H        7.08637857       3.96492887       0.00000000
13
Properties=species:S:1:pos:R:3 energy=-1341.75 pbc="F F F"
O        1.59600604       0.16387706       0.09599809
C        4.32254076      -0.01757445       0.01611936
C        5.82173586       1.82358575       1.68518221
O        7.45317459      -0.20934387       2.55489087
C        5.59729338      -2.04789615       1.68650496
C        6.81648779      -4.10563803       0.36509508
C        7.80921745      -5.83014536      -0.72374624
H        1.00433278      -1.25986147      -0.90778667
H        4.97838879       0.00377945      -1.95099103
H        4.78062916       2.67611670       3.25652719
H        6.87714815       3.27844810       0.66714889
H        4.42961264      -2.68448830       3.27642608
H        8.70241547      -7.36666250      -1.67709410
18
Properties=species:S:1:pos:R:3 energy=-1758.4300537109375 pbc="F F F"
C        1.85510635       0.05502883       0.12664944
C        1.39314389       0.64980125       2.86261392
C       -0.13343357       2.93761706       3.61504602
C       -1.21235383       0.33353665       3.97611618
N        4.24235964       1.25009167      -0.60985243
C        6.32583952      -0.53142875      -0.94817007
C        5.00817108       0.62512141      -3.18692875
H        1.84871912      -2.00331759      -0.12218969
H        0.32023299       0.81356490      -1.04191935
H        2.97934222       0.12037555       4.04917288
H       -0.92105252       4.11467075       2.13412452
H        0.46732926       3.97683406       5.27435780
H       -1.35240138      -0.38588208       5.88946390
H       -2.74340987      -0.24768640       2.74747276
H        6.01766300      -2.51435614      -0.54509151
H        8.18446064       0.17245641      -0.45631218
H        5.97452021       2.11348867      -4.20739985
H        3.77002263      -0.54898435      -4.31670141
11
Properties=species:S:1:pos:R:3 energy=-1151.5899658203125 pbc="F F F"
C        6.49292898      -2.60740638      -3.41823101
C        5.41009712      -1.42181110      -1.46587944
O        6.41492081       0.32465494       0.14567898
C        8.99018288       1.05323887      -0.24934937
C        9.75484180       2.92945337       1.65621269
N       10.41121960       4.41169786       3.13660526
H        5.40391731      -3.95982671      -4.51459360
H        8.43182564      -2.30743122      -3.99875498
H        3.45749974      -1.77573788      -0.94068676
H        9.19722176       1.88116562      -2.13733697
H       10.21750355      -0.60875636      -0.09333357
13
Properties=species:S:1:pos:R:3 energy=-1410.6600341796875 pbc="F F F"
C        3.01694775      -1.27494156       0.24271643
C        4.97474194      -0.11648272       1.35905325
C        5.91285849       2.48765445       0.69815934
C        5.79819012       4.25649452       2.97081947
O        5.56951427       3.61170125       5.18969822
C        8.52559376       2.33744001      -0.25766414
C       10.65446472       2.21613860      -1.03197944
H        2.43534684      -3.14943647       0.84434855
H        1.95488393      -0.40003613      -1.27832413
H        5.95405483      -1.08570433       2.88993931
H        4.69417429       3.32733536      -0.75333935
H        5.98058653       6.28116608       2.49706531
H       12.54897213       2.09039617      -1.70906830
12
Properties=species:S:1:pos:R:3 energy=-1311.31005859375 pbc="F F F"
C        1.95221937      -0.05347925      -0.21542878
C        4.21499634       0.02216649      -0.07851812
C        6.91624641       0.12647937       0.09471308
N        8.42583561      -1.23406672      -1.77271426
C        8.37451077       1.51860285      -1.93084657
C       10.59875584       2.89075184      -1.21688914
C       12.45093346       4.05561686      -0.61873412
H       -0.05788231      -0.11567014      -0.32525966
H        7.69509697       0.11440402       1.99282956
H        7.28600931      -2.00475383      -3.12139297
H        7.32947302       2.28961110      -3.51855659
H       14.09903908       5.08183241      -0.08526444
5
Properties=species:S:1:pos:R:3 energy=-596.3499755859375 pbc="F F F"
C        1.77545440       0.00000000       0.00000000
C        4.04444838       0.00000000       0.00000000
C        6.94733238       0.00000000       0.00000000
N        9.13933945       0.00000000       0.00000000
H       -0.23810549       0.00000000       0.00000000
16
Properties=species:S:1:pos:R:3 energy=-1628.8800048828125 pbc="F F F"
C        2.71729398      -0.85753882      -1.66549122
C        4.93033314      -0.37153906      -0.54032940
C        6.21428871       2.02085423      -0.76520681
C        8.43700314       2.51343036       0.35781965
C        9.82052898       4.89879370       0.18863246
C        9.09988213       7.04327393       1.91737282
N       11.39370728       5.58196735       2.34926963
H        1.81706619      -2.68664265      -1.44199336
H        1.75064230       0.53193903      -2.82383657
H        5.81230640      -1.83641696       0.60153764
H        5.31776476       3.48170710      -1.89953387
H        9.32842541       1.04377139       1.48989785
H       10.58496094       5.35181761      -1.65934968
H        7.59206915       6.76325417       3.27338362
H        9.33919621       8.96164799       1.24929798
H       12.95477200       6.55417490       1.76676166
15
Properties=species:S:1:pos:R:3 energy=-1546.780029296875 pbc="F F F"
C        1.80177832      -0.27780864      -0.08433848
C        4.65951681      -0.07687406      -0.09684847
N        5.83598471      -2.41981316      -0.24199833
C        5.93188810       2.15048933       0.00000000
C        4.74935436       4.73964119       0.11961967
C        8.58884335       2.15048933       0.00000000
N       10.76393700       2.15048933       0.00000000
H        0.80396509       1.52221215      -0.03342925
H        1.18332756      -1.36111307       1.56911516
H        1.16155791      -1.27666116      -1.78229523
H        4.82265663      -3.88805485       0.47679681
H        7.69356632      -2.48064351       0.26335225
H        2.69010067       4.75152731       0.09575243
H        5.37281275       5.87823868      -1.49522686
H        5.33855200       5.71020412       1.85229063
15
Properties=species:S:1:pos:R:3 energy=-1524.77001953125 pbc="F F F"
O        1.86168265       0.12681952       0.03216314
C        4.53092098       0.08751322      -0.05646502
C        5.61379051       2.14338398       1.59392726
C        8.17758179       1.07147467       2.25612521
O        7.84336519      -1.60615385       2.55455065
C        5.69049454      -2.19510579       1.16450596
C        4.81821585      -4.56733561       1.13871121
H        1.27127552      -1.34223473      -0.89448297
H        5.17469358       0.28005740      -2.01510954
H        4.46211576       2.40418530       3.29908395
H        5.72919607       3.97549248       0.64288485
H        9.55513573       1.39280379       0.74149072
H        8.92504406       1.87147141       4.01013136
H        3.11920094      -5.09887791       0.13303672
H        5.81512213      -6.04117107       2.15997577
11
Properties=species:S:1:pos:R:3 energy=-1093.0400390625 pbc="F F F"
C        2.32372069      -0.44690132      -1.32265711
N        4.67540932      -0.42840090      -0.68421316
O        5.53047228       2.08892226      -0.70439541
C        8.14199829       2.12996697       0.00000000
C        9.05288410       4.70222425       0.00000000
C        9.80365372       6.82228947       0.00000000
H        1.28954911      -2.25211883      -1.42162204
H        1.25763166       1.28166890      -1.78802109
H        9.21806526       0.98008758      -1.34497476
H        8.34140205       1.29130661       1.88311207
H       10.46787357       8.72331619      -0.00239995
19
Properties=species:S:1:pos:R:3 energy=-1796.2099609375 pbc="F F F"
C        4.07319117      -0.46012941      -2.99266481
N        4.46474266       0.23315442      -0.35783854
C        5.79866266       2.64040089      -0.09044229
C        4.29789877       4.94832325      -0.91579908
C        5.68807554       7.10710859       0.37707594
N        6.85248709       6.07008362       2.67955613
C        6.37300682       3.33041549       2.66445708
H        3.14357829      -2.30578709      -3.08254027
H        5.86591768      -0.60493910      -4.01536560
H        2.84337640       0.88951302      -3.96252894
H        5.47627497      -1.15588880       0.51489365
H        7.59479046       2.56636143      -1.13232386
H        2.34541464       4.84884834      -0.22198613
H        4.24744272       5.18109989      -2.96981812
H        7.17406178       7.83720446      -0.86831027
H        4.41413546       8.67134857       0.83006221
H        8.75166225       6.39075136       2.61953831
H        7.99031019       2.27540040       3.40783763
H        4.74580145       2.94026279       3.88828158
14
Properties=species:S:1:pos:R:3 energy=-1523.050048828125 pbc="F F F"
C        1.61431742       0.42569861      -0.31331658
C        4.45015383       0.10856476      -0.37038633
C        5.46115732      -2.41883063      -0.82860714
C        4.10726309      -4.52627182      -1.21093655
C        5.93188810       2.15048933       0.00000000
C        8.58884335       2.15048933       0.00000000
N       10.76393700       2.15048933       0.00000000
H        1.05431604       2.38689423       0.04242435
H        0.77815145      -0.72608948       1.19030070
H        0.77856719      -0.12472192      -2.12556386
H        7.51054621      -2.62981844      -0.86660951
H        2.05953693      -4.56355619      -1.21794736
H        5.06064892      -6.31433105      -1.53506231
H        5.06718731       3.98059464       0.33179811
18
Properties=species:S:1:pos:R:3 energy=-1770.0799560546875 pbc="F F F"
C        2.10224485       0.02898840       0.04272671
N        4.85136175       0.01039349      -0.07067576
C        5.98134232       1.90418255      -1.89441264
C        5.27029514       0.05839254      -4.06988430
C        5.97932005      -1.83399808      -1.94469821
C        8.83025551      -1.42337954      -1.63425410
C        8.83218288       1.48617506      -1.59732878
H        1.51113844       1.42712116       1.44883418
H        1.41500807      -1.80945063       0.69681764
H        1.10333550       0.49716803      -1.70275664
H        5.22592402       3.82040262      -1.89923143
H        6.48108053       0.07950078      -5.75020981
H        3.31682849       0.04522115      -4.74071836
H        5.22690678      -3.74936771      -1.99643898
H        9.55570221      -2.22171330       0.13263987
H        9.91662121      -2.18433452      -3.22141623
H        9.91571426       2.28469777      -3.16748333
H        9.55965233       2.23945785       0.18632700
15
Properties=species:S:1:pos:R:3 energy=-1554.7900390625 pbc="F F F"
C        1.88921595      -0.10860256       0.00068030
C        4.76210976       0.00000000       0.00000000
O        5.67059565      -1.28508937      -2.18459892
C        5.67299557       2.57223845       0.00000000
C        6.42374611       4.69232225       0.00000000
C        7.31065130       7.19687080       0.00000000
C        5.72658825       9.16543674       0.00028346
H        1.09466171       0.81747663       1.67231309
H        1.24030280      -2.07442808      -0.03662289
H        1.10214496       0.80810356      -1.68302786
H        5.47960091      -1.01918602       1.65131831
H        5.28785038      -0.21575004      -3.62937021
H        9.33913994       7.50997972       0.00032125
H        3.69016266       8.91555786       0.00158737
H        6.44702768      11.08502007       0.00120942
17
Properties=species:S:1:pos:R:3 energy=-1643.219970703125 pbc="F F F"
C        2.82682252      -0.15146156       0.80315250
C        5.21536064       0.09671618      -0.79882503
C        4.88123798      -1.26243150      -3.33873034
O        7.24874401      -1.53292692      -4.59502029
C        5.80973625       2.85274959      -1.21428132
C        7.78429222       4.19124269       0.34064204
O        8.30481720       3.31783009      -2.17337394
H        3.05285263       0.82382613       2.61570215
H        2.40165305      -2.13852739       1.19508171
H        1.18818426       0.68092501      -0.15369143
H        6.78838778      -0.79103935       0.22219400
H        3.59688592      -0.23273867      -4.59422636
H        4.12264538      -3.16646290      -3.06041145
H        8.10743523       0.09919173      -4.49443007
H        4.27435255       3.93592167      -2.02331090
H        8.67578983       3.19662285       1.89087892
H        7.59976053       6.21100044       0.61695778
16
Properties=species:S:1:pos:R:3 energy=-1577.9100341796875 pbc="F F F"
C        1.62578809       1.06578660      -1.22401345
C        3.11527014       3.52494407      -1.21244824
N        5.32897091       3.25155735       0.43083867
C        7.69375563       2.85892892      -0.93450737
C        7.08290148       5.39229584       0.22228849
C        8.28824425       6.14586163       2.62730503
O        9.99024487       7.71614885       2.65387464
H       -0.06504437       1.26211023      -2.40153956
H        1.01030433       0.55355746       0.68581939
H        2.75463486      -0.49537280      -1.98319197
H        1.90408802       5.03088570      -0.46702692
H        3.59354091       4.04078245      -3.16309929
H        7.65034819       2.68346786      -2.97418332
H        9.08017159       1.67076361      -0.00682191
H        6.59092999       6.93179893      -1.03543758
H        7.58726931       5.24965906       4.37431908
16
Properties=species:S:1:pos:R:3 energy=-1614.050048828125 pbc="F F F"
C        1.65241432      -0.25983733      -0.05888387
C        4.40721941       0.40258726       0.38212153
C        6.58388138      -1.24600983      -0.86625046
N        8.21477222       1.11114001      -0.36942255
C        5.80521965       2.35663962      -1.41941106
C        5.74985075       1.32484925      -4.02477646
C        6.27785921      -1.12047529      -3.64911795
H        0.43240714       1.27802181       0.59537709
H        1.14651573      -1.96334982       1.00147927
H        1.21352541      -0.60482574      -2.04938912
H        4.67274475       0.76849490       2.41446519
H        7.19760799      -3.00791478       0.00266451
H        8.54137325       1.46807158       1.49312925
H        5.59906960       4.38437271      -1.13323092
H        5.40850973       2.31417751      -5.76914501
H        6.47384262      -2.61934948      -5.01055193
16
Properties=species:S:1:pos:R:3 energy=-1580.260009765625 pbc="F F F"
N        1.45867956       0.06030116      -0.14352471
C        4.17412138       0.01122497       0.35901016
C        5.87255096      -1.70494866      -1.15004957
C        5.08319330      -2.76206160      -3.65129113
C        5.54343605      -0.59006697      -5.49230003
O        5.30557632       1.69746542      -4.03911972
C        6.05400229       1.10751176      -1.46780694
H        0.74285132       1.81589448       0.18774429
H        0.52050614      -1.15101326       1.01757967
H        4.65569925       0.24269752       2.34609509
H        7.41347122      -2.68908024      -0.24728957
H        6.16041279      -4.44412565      -4.18578100
H        3.07804251      -3.28296447      -3.63243151
H        7.47112656      -0.65904200      -6.24535608
H        4.20586920      -0.58230019      -7.06700897
H        7.69059944       2.07359648      -0.70577490
15
Properties=species:S:1:pos:R:3 energy=-1513.6600341796875 pbc="F F F"
C        1.62799907      -0.30645689       0.06054683
C        4.32433605      -0.29128239      -0.72257459
O        4.76813793       0.54677337      -3.26094913
C        5.66369820       2.16033483      -1.27152109
C        8.47086716       2.35616732      -1.10503626
C        9.41147900       2.70002174       1.56091380
O        8.04668045       2.86440897       3.42854905
H        1.47663200       0.03497883       2.09549832
H        0.77618611      -2.14699340      -0.34954265
H        0.52369982       1.14511740      -0.92006987
H        5.38893223      -1.88067436      -0.00521564
H        4.69322920       3.92607617      -0.93023658
H        9.11917591       3.98131275      -2.21116853
H        9.38948250       0.66361511      -1.87082887
H       11.48465919       2.80930471       1.75670826
16
Properties=species:S:1:pos:R:3 energy=-1608.06005859375 pbc="F F F"
C        1.38186228       1.27832413      -0.24018419
C        3.80955553      -0.03943858       0.35568425
C        6.08367109       1.05278528       0.13101472
N        8.38494205      -0.08739983       0.65616959
C        8.53400326      -2.69057322       1.53253007
C       10.63517094       1.24810743       0.37148237
O       12.77184677       0.45667121       0.78529459
H        0.37359884       0.25552878      -1.72834349
H        1.67966413       3.22203970      -0.88261551
H        0.17927831       1.33227587       1.44161534
H        3.61608553      -1.97929919       0.99720848
H        6.19076157       3.00445676      -0.51589525
H        7.64891243      -3.93597817       0.13951848
H        7.56245708      -2.85152125       3.35078669
H       10.49041748      -3.30316567       1.78938162
H       10.33642387       3.20136619      -0.29593110
21
Properties=species:S:1:pos:R:3 energy=-1995.1199951171875 pbc="F F F"
C        3.53635788      -1.76419163       0.83966202
C        6.27621508      -0.84716421       0.67599285
C        7.72092962      -2.43814349      -1.25727260
C        6.32642508       1.99649560       0.02889391
C        8.97185230       3.17991781       0.03097261
C        8.86156845       5.99262381      -0.57173663
O       10.12815762       2.85779500       2.43990111
H        2.49124479      -0.70420647       2.27651525
H        3.46103334      -3.76599741       1.35712576
H        2.55759311      -1.53215218      -0.96865469
H        7.14686871      -1.13529074       2.53559685
H        7.01553249      -2.11023831      -3.17455101
H        7.52377462      -4.45557737      -0.84113598
H        9.74180317      -2.00458360      -1.22890782
H        5.15789413       2.98654199       1.43033373
H        5.43659067       2.30312252      -1.81961727
H       10.18042755       2.25807166      -1.36946559
H        7.73258924       7.01428556       0.83282119
H        8.04951477       6.32839060      -2.44451189
H       10.76072407       6.81637430      -0.51867312
H        9.06533718       3.68339753       3.69173121
15
Properties=species:S:1:pos:R:3 energy=-1468.02001953125 pbc="F F F"
O        1.17461598       0.05778782      -1.36132085
C        3.50958037      -0.81186414      -0.35094103
C        5.40801811       1.36819947      -0.23005526
N        4.57223034       3.68154550      -0.21028872
N        7.95848703       0.96770984      -0.12613922
C        9.35348320      -1.20326424      -0.03376941
C       11.87152386      -1.35413992       0.05818467
H        1.52398849       0.57003587      -3.09607053
H        4.21550655      -2.34577370      -1.53914416
H        3.18222332      -1.51610839       1.56408858
H        2.62089896       3.60266829      -0.24354790
H        8.95788765       2.60593224      -0.05831695
H        8.25213146      -2.93765497      -0.03186078
H       13.05679798       0.31894797       0.06392944
H       12.80873394      -3.17764997       0.12827460
15
Properties=species:S:1:pos:R:3 energy=-1529.25 pbc="F F F"
O        7.71110296       3.37119579       5.10592651
C        6.08104420       4.32849312       3.78504586
O        6.24439192       4.88182402       1.29262936
C        8.60399914       4.26012278       0.11134266
C       10.43104267       6.39139414       0.45565078
C       12.12803555       7.21688318      -1.67930508
C        9.99495029       8.89376926      -0.83476764
H        4.20055866       4.88985538       4.47543859
H        8.20046616       3.94589925      -1.89499843
H        9.37791729       2.48527336       0.84916735
H       11.20469666       6.42523909       2.35397506
H       11.95385933       6.29556608      -3.50067997
H       14.03970146       7.79052830      -1.21439469
H       10.46110821      10.59586430       0.20639589
H        8.37122250       9.08678627      -2.06934452
18
Properties=species:S:1:pos:R:3 energy=-1774.1500244140625 pbc="F F F"
C        1.76759315      -0.15106471       0.11563234
N        4.51708794      -0.16882813       0.23135917
C        5.53788042       2.35800028      -0.19936611
C        8.36075306       2.25759912      -0.03545126
C        9.91960716       2.98348069      -1.89862669
C       12.63476562       2.87227035      -1.68049562
C       14.19596291       3.59631896      -3.53189826
H        1.05202949      -2.06144547       0.45551848
H        1.08938932       0.46035618      -1.74119365
H        0.96408159       1.08203828       1.56964433
H        5.19771051      -1.34622204      -1.13413799
H        4.85083246       3.66353655       1.25515604
H        4.92987967       3.08297491      -2.04320979
H        9.12580872       1.56061149       1.74162829
H        9.14017105       3.68753600      -3.66682458
H       13.43079376       2.16126084       0.07842363
H       13.50770569       4.31823206      -5.32419014
H       16.22877884       3.47719049      -3.28347468
9
Properties=species:S:1:pos:R:3 energy=-1018.4400024414062 pbc="F F F"
C        1.81597018      -0.10317905      -0.00253223
C        4.08186531       0.01863270       0.00051023
C        6.74301529       0.16863915       0.00419519
C        8.41491222       2.12460017       0.00120942
N       10.80197716       1.14523077       0.00782347
N       10.65380383      -1.36712241       0.01485325
O        8.08679962      -2.01246381       0.01264227
H       -0.19409376      -0.21847124      -0.00514005
H        8.06194973       4.13173485      -0.00514005
19
Properties=species:S:1:pos:R:3 energy=-1776.97998046875 pbc="F F F"
C        4.59505796      -0.89567351      -2.91639543
C        4.57963800       0.07942519      -0.21187609
C        6.28175211       2.38842487       0.06844588
N        5.18323517       4.72495794      -1.06438828
C        6.16953993       6.18726587       1.12108004
C        6.18516827       3.72455573       2.67828989
N        8.59415340       3.43822432       4.01712322
H        3.42178369      -2.59109807      -3.07367730
H        6.51405621      -1.37927330      -3.51815987
H        3.85615635       0.52099752      -4.22918797
H        5.25872993      -1.42540157       1.04078555
H        2.63327670       0.50451910       0.36156130
H        8.20186520       2.01478815      -0.63326615
H        3.25597930       4.71649170      -1.14334095
H        8.01402664       7.05177784       0.73468775
H        4.89189625       7.66147900       1.80765533
H        4.48745728       3.39719844       3.81358075
H       10.14535427       3.84687781       2.94517589
H        8.88483047       1.66135275       4.70112848
18
Properties=species:S:1:pos:R:3 energy=-1727.4200439453125 pbc="F F F"
C        2.07552409       0.53662550      -0.89709079
C        4.89108372       0.25462168      -0.39432916
N        6.05781937       2.75384116      -0.18887813
C        8.77617168       2.53193069       0.31371343
C        9.96369457       5.15335894       0.41897118
C       12.76262474       5.02771091       0.92683506
O       13.94727516       3.07490563       1.32175004
H        1.18623781      -1.32670116      -1.03734624
H        1.72955298       1.54288578      -2.67341447
H        1.13786077       1.57495451       0.62948668
H        5.74641132      -0.81222320      -1.94878006
H        5.16295862      -0.81944191       1.35497141
H        5.21237469       3.72897768       1.24334526
H        9.68660355       1.42538261      -1.18444252
H        9.09270096       1.54103386       2.10723352
H        9.10821533       6.29305267       1.92120898
H        9.70071983       6.14720345      -1.37846076
H       13.73409462       6.87293386       0.95370698
15
Properties=species:S:1:pos:R:3 energy=-1528.7099609375 pbc="F F F"
C        1.79376578       0.06700969       0.05208085
C        4.59747696       0.00555580      -0.03104820
C        6.21752024       2.05099535      -0.20962732
N        8.63447952       1.16535628      -0.23971176
N       10.80577564       2.68324113      -0.36175027
C        8.63442326      -1.40291381      -0.10514436
C        6.15351534      -2.18937993       0.03562134
H        1.08583665       2.00976157       0.10043894
H        1.10012293      -0.91069680       1.73709297
H        1.00523984      -0.86466306      -1.61717093
H        5.82615805       4.05316019      -0.33041862
H       10.53682899       4.35302210       0.55125201
H       12.28985310       1.84815216       0.52919888
H       10.37478542      -2.47213984      -0.13194068
H        5.52862072      -4.13286877       0.15665829
15
Properties=species:S:1:pos:R:3 energy=-1365.47998046875 pbc="F F F"
C        1.96049643      -0.18173496       0.10590025
C        4.80944729       0.10282000       0.07454970
S        5.72479296       3.34698844      -0.02709867
O        5.00726414       4.40283489      -2.44831038
O        5.04543638       4.54327965       2.33634400
O        8.76798916       2.88334417      -0.03856931
C       10.32701302       5.05463934      -0.11612367
H        1.43743908      -2.18119740       0.16899821
H        1.11002517       0.65607512      -1.58360934
H        1.13687813       0.75449204       1.75657606
H        5.60993528      -0.82293797      -1.59175408
H        5.63709068      -0.72408634       1.77929056
H       12.30107784       4.44597769      -0.11293004
H        9.99950504       6.24097157       1.54466212
H        9.97348309       6.13866186      -1.84032869
16
Properties=species:S:1:pos:R:3 energy=-1530.77001953125 pbc="F F F"
C       -3.45608234       1.84544981       0.73721993
C       -2.51993084      -0.68277693      -0.18337902
C       -0.45436576      -2.26561165       0.82906067
N        1.33490252      -0.86517334      -0.71768022
C        3.72400761      -0.13753426       0.20087789
C        1.48666644       1.69565129       0.30762851
C       -1.13324988       1.71035337      -0.93138933
H       -5.18002272       2.57974076      -0.09233202
H       -3.23494649       2.29046154       2.72354889
H       -3.60295177      -1.63901615      -1.63822246
H       -0.20518646      -2.10169673       2.87873316
H       -0.59222126      -4.24423027       0.25602010
H        4.40226841      -0.97674274       1.93827319
H        5.17321968       0.23906925      -1.19389117
H        1.32664442       2.24342608       2.29915428
H       -1.31184793       2.39989543      -2.85851312
15
Properties=species:S:1:pos:R:3 energy=-1449.280029296875 pbc="F F F"
C        1.77944171      -0.00907069       0.54977804
C        4.60645294      -0.08352590       0.04573137
C        5.50018024       2.26304150      -1.38490474
O        8.15326118       2.01167011      -1.87838781
N        8.76437950      -0.14726636      -3.36265421
C        7.32962418      -2.09292841      -2.98969793
N        5.22233391      -2.26357055      -1.50280476
H        1.27554619       1.64580023       1.68493652
H        1.17236722      -1.70094252       1.57716548
H        0.69882071       0.06559239      -1.21550965
H        5.63941526      -0.24279201       1.83488631
H        5.22709608       3.96589255      -0.24252746
H        4.50440788       2.52658272      -3.18382955
H        7.75040960      -3.87301254      -3.98853159
H        4.75148964      -3.99166846      -0.82548904
12
Properties=species:S:1:pos:R:3 energy=-1326.489990234375 pbc="F F F"
O        3.71735597      -2.30841374       0.10839469
C        3.38676715      -0.02738213      -0.14176725
C        5.43385077       1.96546638       0.07810238
C        8.03555012       0.84701306      -0.02107045
C        9.49685669       0.47424567       2.01909685
C       11.95790386      -0.59286380       1.84452391
N       13.97726440      -1.43303597       1.71099579
H        1.46964002       0.72571152      -0.46946466
H        5.11206818       3.01330066       1.83337450
H        5.20797205       3.28988099      -1.49594498
H        8.72371292       0.30074993      -1.88396251
H        8.83777714       0.96035880       3.89776802
15
Properties=species:S:1:pos:R:3 energy=-1474.9300537109375 pbc="F F F"
C        2.26742578       0.94871813      -1.07703054
N        4.69039488       1.15666354       0.13481306
C        6.85205269       0.26613012      -1.00593901
O        6.93862104      -0.54777491      -3.17235875
N        8.90603352       0.43475041       0.64443439
C       10.80675793      -1.50185990       0.65770030
C       11.36849785       1.06803536      -0.30609784
H        1.59568477      -0.99637699      -0.88552564
H        2.42187309       1.42560935      -3.08157635
H        0.95140153       2.23724675      -0.14335462
H        4.78546667       1.32350755       2.03319407
H       10.51831055      -3.02501678      -0.67612511
H       11.41798973      -2.02442575       2.53442502
H       12.38084316       2.38721538       0.87981868
H       11.47995377       1.37330174      -2.32646084
16
Properties=species:S:1:pos:R:3 energy=-1628.1700439453125 pbc="F F F"
C        5.00424051      -2.34601951       1.00136590
C        4.23417711      -0.04444636       0.28353450
C        5.79486418       2.22161865       0.07400168
C        4.67514467       4.40022707      -0.60588402
C        8.51418018       2.01040411       0.68213445
C       10.28621387       0.92298001      -1.27172899
N       10.33117104       3.60408568      -0.67878962
H        3.66487813      -3.89850497       1.08912480
H        6.94202232      -2.76733375       1.51582491
H        2.24350166       0.17657600      -0.19161823
H        2.67579556       4.53420877      -1.03360462
H        5.77334023       6.12692690      -0.77274680
H        8.93337822       1.69875038       2.66530752
H        9.54487419       0.42692694      -3.11457109
H       11.87558746      -0.19505753      -0.63277477
H       11.81592846       4.04199171       0.47046623
18
Properties=species:S:1:pos:R:3 energy=-1801.050048828125 pbc="F F F"
C        1.93804646      -0.45243824       0.03182299
C        4.79459429      -0.07379381       0.02747662
C        5.72093821       2.70763731       0.00000000
C        4.78495646       4.09163523      -2.37948656
C        4.78524017       4.13804674       2.35098934
C        8.44970226       2.70763731       0.00000000
N       10.62479591       2.70763731       0.00000000
H        1.50316381      -2.47588134       0.05153283
H        1.05868125       0.35205597      -1.65502214
H        1.05949390       0.38455927       1.70322907
H        5.57045889      -1.07720053      -1.61843705
H        5.57113934      -1.04471624       1.69251430
H        5.33838177       3.08288026      -4.10323811
H        5.58618164       6.00006962      -2.50343370
H        2.72526860       4.29272079      -2.39375401
H        5.33840084       3.16377950       4.09533882
H        2.72504187       4.33994484       2.36200643
H        5.58640862       6.04918337       2.43797350
12
Properties=species:S:1:pos:R:3 energy=-1332.6800537109375 pbc="F F F"
C        1.64190745       0.19286545      -0.01188638
C        4.47307634       0.07222533      -0.01249109
C        5.57452202      -2.52289772      -0.02806243
O        4.24434376      -4.41664886      -0.03945748
C        5.93188810       2.15048933       0.00000000
C        8.58884335       2.15048933       0.00000000
N       10.76393700       2.15048933       0.00000000
H        0.95081568       2.14457464      -0.00018897
H        0.87469751      -0.74986225       1.66363931
H        0.87481093      -0.72971773      -1.69854259
H        7.65405226      -2.66528869      -0.02887502
H        5.04755306       4.00175953       0.01109269
16
Properties=species:S:1:pos:R:3 energy=-1615.989990234375 pbc="F F F"
N        1.94484949       0.01530678       0.50032389
C        4.66762352       0.00000000       0.00000000
C        5.20358753      -1.34183788      -2.54347682
C        7.98139048      -1.66624713      -3.10173988
C        9.13552189      -3.90277576      -3.38400817
C        5.57850933       2.57223845       0.00000000
C        6.32925987       4.69232225       0.00000000
H        1.63637054       0.87947851       2.19285703
H        1.32919562      -1.79610908       0.69487119
H        5.59084940      -1.06066549       1.52332711
H        4.35971165      -0.27115682      -4.10826445
H        4.28108025      -3.20091271      -2.53839350
H        9.08933735       0.05304461      -3.32327247
H        8.12166500      -5.67681313      -3.21357369
H       11.14080524      -3.99686527      -3.80872416
H        6.98730040       6.59503078      -0.00699199
15
Properties=species:S:1:pos:R:3 energy=-1517.5799560546875 pbc="F F F"
C        5.75992298      -1.94443369      -1.40669322
C        4.75685644       0.25547206       0.14514987
C        6.45985889       2.58597684      -0.00444086
O        6.63040638       3.46341443      -2.59466958
C        5.83035326       5.91726160      -2.33046699
C        5.18941450       6.49772882       0.00005669
O        5.45985365       4.52232265       1.66110706
H        4.51663446      -3.58486724      -1.20407677
H        7.65165234      -2.49190617      -0.77503335
H        5.85705519      -1.46608734      -3.41617131
H        4.54331732      -0.32100779       2.12378764
H        2.85720921       0.73837268      -0.53156108
H        8.37577629       2.12713242       0.64258248
H        5.80249882       7.05185318      -4.01515770
H        4.48738146       8.24238110       0.76741779
17
Properties=species:S:1:pos:R:3 energy=-1701.239990234375 pbc="F F F"
C        1.88972616       0.00000000       0.00000000
C        4.61849070       0.00000000       0.00000000
C        6.86756706       0.00000000       0.00000000
C        9.59633160       0.00000000       0.00000000
C       10.62460709      -1.24413896       2.39307356
C       10.62519264      -1.32927120      -2.34864616
O       10.48355770       2.54791784      -0.03089702
H        1.14515519       1.92916477       0.02203421
H        1.14519298      -0.98369694       1.65968978
H        1.14521182      -0.94550556      -1.68172395
H        9.97427654      -0.24456836       4.08817673
H       12.69429207      -1.17537189       2.43196416
H       10.03108215      -3.22143507       2.54918385
H        9.97064877      -0.39572755      -4.07997561
H       10.03641129      -3.31286001      -2.43109488
H       12.69501019      -1.25636554      -2.39237428
H        9.56316662       3.41379023      -1.36496806
13
Properties=species:S:1:pos:R:3 energy=-1383.0 pbc="F F F"
N        2.20793700      -0.17445952      -0.23307882
C        4.61147976       0.23965506      -0.24173376
C        5.64328909       2.71287203       0.57245475
C        8.12478256       2.42928076       0.16119364
C        8.84238720      -0.06147279      -0.81435859
C        8.32800388      -2.36741114       0.72933978
N        6.41720772      -1.49071050      -1.06903696
H        1.95441151      -1.97289300      -0.91466522
H        4.56450129       4.28805304       1.25494826
H        9.50587082       3.89468765       0.51742589
H        9.97758389      -0.16412272      -2.51087904
H        9.19773197      -4.12939167       0.16769430
H        7.78225136      -2.21508026       2.69420147
14
Properties=species:S:1:pos:R:3 energy=-1387.6199951171875 pbc="F F F"
C        4.95015669      -0.31858894       0.94234973
C        7.44153357      -1.69054902       1.30476141
O        8.78512859      -1.83010530      -1.04666257
C       10.26349926       0.19823228      -1.60938525
C       11.56300735      -0.21712953      -4.09106827
O       10.52261829       2.08521819      -0.30418921
H        3.86295915      -0.29566655       2.70039964
H        3.82119632      -1.23763835      -0.52878314
H        5.25833321       1.63395166       0.33168474
H        7.08089828      -3.63549304       1.91117454
H        8.59179115      -0.79806912       2.77710366
H       10.16119003      -0.55240476      -5.57102585
H       12.86081505      -1.81672597      -3.94143963
H       12.64500809       1.47270131      -4.58840609
18
Properties=species:S:1:pos:R:3 energy=-1781.300048828125 pbc="F F F"
C        2.27362394       0.28744623       0.25917593
C        4.96933746      -0.56281716      -0.15446621
C        5.23745155      -2.92826295      -1.71915948
N        4.08330154      -5.08245611      -0.44724149
C        6.88062525       0.82187968       0.80566585
C        9.55498409       0.32896352       0.57708454
C       11.31435776       1.83078563       1.60609710
H        2.16443563       2.09128428       1.26912117
H        1.22552514      -1.10617006       1.37171435
H        1.31575966       0.53868532      -1.55783355
H        7.20433521      -3.39050889      -2.14045501
H        4.30572224      -2.64068437      -3.54618454
H        4.99522638      -5.35958433       1.22699916
H        4.39425564      -6.66555548      -1.49401748
H        6.40150404       2.50919724       1.88681591
H       10.18721104      -1.31955791      -0.46621433
H       10.82896233       3.51063871       2.67730737
H       13.30747032       1.39732015       1.39085734
17
Properties=species:S:1:pos:R:3 energy=-1648.9100341796875 pbc="F F F"
C        1.04979956      -0.27040091       0.09099031
N        3.76019597      -0.43637556       0.56790048
C        4.61913300      -2.96603847       1.28747046
C        5.44137192       1.10250401      -0.72550368
N        4.98984098       1.93619454      -2.98964119
C        7.91307688       1.93218827       0.35094103
C        8.42148876       1.91049421       2.82846642
H        0.46230260       1.70173621      -0.13027772
H       -0.01850042      -1.04683268       1.68486094
H        0.53377205      -1.31986034      -1.61613154
H        3.15348053      -3.98802137       2.33390617
H        6.28600407      -2.88948584       2.50636268
H        5.09188604      -4.06890154      -0.39980936
H        3.29974532       1.24500823      -3.60057068
H        9.26200104       2.67791200      -1.00093126
H        7.04684544       1.27805960       4.20985651
H       10.22579956       2.59242082       3.52055979
15
Properties=species:S:1:pos:R:3 energy=-1457.06005859375 pbc="F F F"
O        4.53277254      -0.67064488      -2.82782388
C        4.50244236       0.17102021      -0.27223393
C        6.22078943       2.44583464      -0.00725655
C        6.55852127       3.29451084       2.71770954
N        6.46983624       6.03563404       2.45375276
N        5.12350130       6.75461817       0.39776847
C        5.00843573       4.78346395      -1.04375243
H        3.46303654      -2.16449237      -2.92506933
H        5.16881657      -1.38566053       0.91670614
H        2.54570675       0.61533260       0.23595120
H        8.01997852       2.18012023      -0.99798328
H        8.35043526       2.65330768       3.52282739
H        5.00871897       2.64659929       3.92915630
H        5.92208052       6.95135736       4.06079483
H        4.13859463       4.79166508      -2.93102193
16
Properties=species:S:1:pos:R:3 energy=-1485.530029296875 pbc="F F F"
C        1.76387036      -0.13573903      -0.12961632
C        4.63417530       0.06765220      -0.01313360
C        5.87736940      -1.42165983      -2.14100313
C        5.38558722       2.81272507      -0.22684273
N        6.61166048       3.90867186       1.58570695
N        7.12940741       6.36072350       1.08959723
H        0.88996655       0.95612586       1.39580846
H        1.15660691      -2.10417223       0.06026337
H        1.02619684       0.59830618      -1.91884685
H        5.29444551      -0.66788590       1.80960178
H        5.27707911      -0.73130512      -3.99699759
H        5.39745474      -3.42941833      -2.01223707
H        7.93696308      -1.24604762      -2.05008841
H        4.84967995       3.81299496      -1.98309755
H        8.43069172       6.99954557       2.37151170
H        5.56896639       7.45967484       1.40682554
11
Properties=species:S:1:pos:R:3 energy=-1271.5400390625 pbc="F F F"
O        2.22129750       0.04399282       0.98768425
C        4.40780497      -0.04484320       0.28867456
C        5.96091413      -2.37512112      -0.15866141
C        8.42411518      -1.21004832      -0.97744197
C        8.51276302       1.31893432      -1.06087339
C        6.02388000       2.25293159      -0.27966058
O        5.38800621       4.44497585      -0.12082909
H        5.13676691      -3.51884007      -1.66516995
H        6.18463898      -3.44531083       1.59113050
H       10.02968407      -2.38398409      -1.46863842
H       10.05810547       2.53223300      -1.58485663
18
Properties=species:S:1:pos:R:3 energy=-1706.0999755859375 pbc="F F F"
C        3.94351840       2.75792313       4.25808191
C        5.41058826       2.67863011       1.79873586
O        7.29207516       4.60637760       1.85822439
C        8.76539993       4.61180115      -0.40366441
C       10.53815269       6.81091309      -0.31085995
C       13.22530460       6.47777319       0.56612414
N       12.64992142       6.93986797      -2.09580088
H        2.44955754       1.32879877       4.27123451
H        3.08919191       4.62151432       4.54050159
H        5.20111227       2.42113590       5.86705160
H        4.12695408       3.00536370       0.20907930
H        6.31058931       0.82788903       1.57669306
H        7.51288986       4.81572151      -2.04532623
H        9.78670311       2.81499267      -0.56128645
H        9.57715130       8.57234573       0.09144384
H       13.88960075       4.59938574       1.02521420
H       14.11440182       8.00622177       1.59387064
H       13.02833843       8.77176857      -2.56789207
14
Properties=species:S:1:pos:R:3 energy=-1391.18994140625 pbc="F F F"
C        5.15339661      -1.70691407      -0.51829517
N        5.39741707       0.13830906       1.52105951
C        5.83082581       2.72464490       0.52194238
C        5.04674053       4.59913969       2.53877139
O        6.15776730       6.59692049       2.94931436
C        8.57415962       3.12277246      -0.24126133
O       10.22156620       1.48534369      -0.13590911
H        4.77395821      -3.57092094       0.29387131
H        6.87707233      -1.85363233      -1.65031672
H        3.56799197      -1.24122882      -1.76322782
H        6.95608187      -0.35099775       2.56664491
H        4.61675215       3.08388186      -1.11645019
H        3.26469088       4.16522074       3.53367448
H        9.01953030       5.01935816      -0.98985744
13
Properties=species:S:1:pos:R:3 energy=-1254.2099609375 pbc="F F F"
C        1.92084992      -0.05487765      -0.14397824
C        4.70167637       0.26631910       0.09261548
O        6.13142443      -0.91670614      -1.88451052
C        6.18099165       1.79083681      -1.80344129
C        8.68482208       2.88702917      -1.15454710
H        0.94450402       1.25298285       1.12521851
H        1.37778044      -1.98188806       0.37390122
H        1.25755608       0.30626792      -2.07174444
H        5.38231802       0.07521110       2.00959158
H        5.20337963       2.81389666      -3.27771115
H        9.65187073       1.80123031       0.31745508
H        8.45510674       4.82736206      -0.47677791
H        9.90004826       2.92822504      -2.82737041
17
Properties=species:S:1:pos:R:3 energy=-1628.06005859375 pbc="F F F"
C        1.91295087      -0.03586700      -0.19203398
N        4.66140652       0.02297907      -0.13475637
C        5.59491205       2.61855578       0.00000000
C        8.32367706       2.61855578       0.00000000
C       10.57275295       2.61855578       0.00000000
C       13.30151749       2.61855578       0.00000000
N       14.24706078       5.18019295      -0.34188926
H        1.26798737      -1.99916017      -0.27767634
H        1.16482723       0.95132595      -1.84939933
H        1.10949600       0.80727214       1.51779020
H        5.35761929      -0.79846597      -1.73083794
H        4.90028667       3.52968717       1.72560346
H        4.89724398       3.71659994      -1.61252224
H       14.02501869       1.41345847      -1.51875401
H       14.02617073       1.86334550       1.78458178
H       13.58733845       5.86453819      -2.01495838
H       16.16226006       5.12486172      -0.49049732
14
Properties=species:S:1:pos:R:3 energy=-1407.06005859375 pbc="F F F"
C        1.98158574      -0.08227868      -0.26567659
C        4.66308832       0.63543934       0.16671164
O        6.44976759      -0.83108264      -1.22631884
C        6.22734690       1.79998302      -1.91886568
C        8.51644802       3.32053232      -1.41183329
N        8.36955929       4.98916054       0.54819065
O       10.39602566       3.17162180      -2.74790740
H        0.73565149       1.48109174       0.26325774
H        1.48606169      -1.72218299       0.89299011
H        1.61240888      -0.55773377      -2.24550486
H        5.08714294       1.02385366       2.12654662
H        5.33685112       2.18779254      -3.72077632
H        6.81903887       5.20396566       1.63578475
H        9.90985584       6.06305408       0.90311903
16
Properties=species:S:1:pos:R:3 energy=-1601.969970703125 pbc="F F F"
C        1.88451052      -0.24931157       0.12438177
C        4.75468302      -0.05863820      -0.08698409
O        5.47362947      -1.23259282      -2.41811252
C        5.77848005       2.67148685      -0.00187083
C        4.69999456       4.22486067       2.18478799
C        8.56490040       2.62925148       0.21399258
N       10.74774170       2.66729164       0.41961369
H        1.21065307       0.33593661       1.98835099
H        1.26628661      -2.19897985      -0.19800550
H        0.95792109       0.91375816      -1.31589186
H        5.60139370      -1.18769288       1.43135417
H        4.49363661      -0.49686569      -3.78897643
H        5.30070066       3.62371993      -1.78180385
H        5.01401043       3.28610158       4.00425386
H        2.66800976       4.53632545       1.95707595
H        5.59602690       6.09034157       2.28301597
18
Properties=species:S:1:pos:R:3 energy=-1668.6800537109375 pbc="F F F"
C        1.96214044      -0.44487932       0.33765626
C        4.74757767       0.11349695      -0.22287430
O        6.29023695      -0.84863824       1.81959844
C        5.64302444      -1.17425692      -2.69815087
N        5.34958792      -3.93633723      -2.61439824
C        5.18574858       2.99047279      -0.35439923
O        7.81392288       3.54045868      -0.60463679
H        0.74285132       0.16924387      -1.21505606
H        1.35225022       0.52332187       2.06371331
H        1.64838922      -2.46229434       0.67398971
H        5.40796137      -0.49297285       3.39411831
H        7.65314531      -0.78166634      -3.00547719
H        4.59222364      -0.43686688      -4.32087755
H        6.19920874      -4.54877853      -0.98864800
H        6.35116148      -4.71505547      -4.06310034
H        4.55108404       3.90451431       1.39025259
H        4.18022537       3.84453440      -1.94645572
H        8.68055153       2.35046029       0.51290947
15
Properties=species:S:1:pos:R:3 energy=-1540.739990234375 pbc="F F F"
O        1.89061427       0.24388805       0.31496066
C        4.39302731      -0.01725320      -0.14683172
O        5.35155344      -2.06741714      -0.59169215
C        5.77982187       2.47476649      -0.12802894
C        8.60896873       2.08586073       0.27408588
C        9.98964024       4.56826162       0.31031194
C       11.20050144       5.48564816       2.33466220
H        1.36062169       1.98432577       0.61608851
H        5.02738953       3.64685011       1.40606964
H        5.41268587       3.42425942      -1.93135679
H        9.39719200       0.91795337      -1.24597204
H        8.92680168       1.04214621       2.03767276
H       10.02065086       5.64591599      -1.44244683
H       11.25044632       4.47220707       4.11744881
H       12.18998051       7.28090715       2.24157429
18
Properties=species:S:1:pos:R:3 energy=-1762.6500244140625 pbc="F F F"
C        1.54685426       0.59182441       0.44113767
C        4.33529615       0.13872479       0.24891473
C        5.32247019      -2.19884753       0.18959622
C        6.11526728       2.32387185       0.07073245
C        5.07276201       5.05550861       0.18921828
N        7.29931307       5.76048994       1.74468970
C        7.47777843       3.07396078       2.54578233
H        0.88836026       1.75105798      -1.14082766
H        1.09042871       1.55713439       2.21332288
H        0.47275278      -1.17699707       0.40290850
H        4.13111162      -3.86717343       0.29685709
H        7.34381580      -2.51913714       0.03235211
H        7.43182039       2.09202123      -1.52534914
H        3.28757548       5.33458328       1.19835091
H        4.95259428       6.03667355      -1.62695968
H        8.80878830       6.32827711       0.68619734
H        9.41019344       2.36733556       2.75314212
H        6.43920422       2.67870569       4.29513979
13
Properties=species:S:1:pos:R:3 energy=-1365.989990234375 pbc="F F F"
C        4.88237190       0.15204737       1.28731918
N        3.19788909       0.80859494      -0.83493769
C        4.63134098       2.84938574      -1.31014717
C        4.76384830       5.25192690      -2.12327743
N        6.73589087       6.28898954      -0.69086498
C        7.50281763       4.58349276       1.18791962
C        6.24768019       2.43893719       0.61128861
H        5.85371017      -1.64440191       0.97277433
H        4.00965881       0.16363138       3.15903640
H        3.19667959      -0.56550056      -2.17210793
H        3.57354760       6.43652058      -3.29044795
H        7.20822811       8.14076996      -0.70728672
H        8.60106945       5.21430254       2.78961372
15
Properties=species:S:1:pos:R:3 energy=-1519.699951171875 pbc="F F F"
C        1.79404926       0.06897500       0.08010549
C        4.61860418       0.11077575       0.02547351
C        5.93253040       2.27643967       0.13375482
C        8.70935059       2.03051066      -0.13224304
N       10.00543880      -0.04571247      -0.00600933
N        8.64054585      -2.13843298       0.58568281
C        5.98788071      -2.37863612      -0.17122808
H        1.06943381      -1.86115348       0.20853128
H        1.02434492       0.91130155      -1.64203978
H        1.07425261       1.11053538       1.71339583
H        5.10675812       4.13970947       0.25658703
H        9.71753883       3.81065154      -0.52749813
H        9.62282562      -3.74541831       0.17763425
H        5.10035181      -3.77671218       1.07153141
H        5.86588001      -3.07581282      -2.11772156
12
Properties=species:S:1:pos:R:3 energy=-1278.5899658203125 pbc="F F F"
O        3.34513640      -1.04122019      -1.42164099
C        4.09747410       0.74755675      -0.15233083
C        3.16776681       0.98566228       2.42056918
C        2.38704538       1.16495943       4.54645443
N        5.79320097       2.53425503      -1.08782089
C        7.77694130       3.62077188       0.40213373
C        5.62873840       5.17711258      -0.51861644
H        1.67951298       1.29971588       6.42624044
H        9.56581211       3.70998597      -0.58318835
H        7.85579920       3.06449318       2.36605048
H        4.15807772       5.74327469       0.78109938
H        5.89333773       6.37030458      -2.15723586
17
Properties=species:S:1:pos:R:3 energy=-1606.550048828125 pbc="F F F"
C        2.25160861      -1.10223949       0.94104582
C        4.65435791      -0.44178018      -0.51451576
C        5.07578564      -2.26946664      -2.74291849
O        3.02441216      -2.12550735      -4.49709463
N        4.45905447       2.11751366      -1.50762355
C        4.75222635       4.28877115      -0.17292884
N        5.69436836       4.58731031       2.04135776
H        2.01550627       0.14023657       2.58081794
H        2.32389069      -3.05239892       1.63109827
H        0.55945343      -0.89684510      -0.23504414
H        6.28933001      -0.59841955       0.74532688
H        5.22745514      -4.22106218      -2.06953359
H        6.81217909      -1.77836454      -3.75849509
H        3.39033866      -3.32599354      -5.84269285
H        3.33187056       2.21186781      -3.06764913
H        4.08915949       5.96431589      -1.22484493
H        6.24541283       2.88498831       2.75510740
19
Properties=species:S:1:pos:R:3 energy=-1926.010009765625 pbc="F F F"
C        1.84361684       0.05884607      -0.04079919
C        4.72414541       0.01782012       0.00086927
C        5.77124262      -2.40235209       1.21855211
C        6.40157938      -1.72080350       3.95398736
C        6.73180914       1.07565105       3.83213782
C        5.80786562       2.03874993       1.67964530
C        5.78987503       4.75390863       0.94920945
H        1.11550534      -1.49131513      -1.20328307
H        1.13914585       1.83310997      -0.84077698
H        1.04265642      -0.14316565       1.85833776
H        5.45044279       0.19133477      -1.93056309
H        7.51568651      -2.96070957       0.24007080
H        4.47358656      -4.01047134       1.09844112
H        8.12196732      -2.67598438       4.58332300
H        4.85308123      -2.20525360       5.23669577
H        7.56557512       2.17503691       5.34036589
H        5.24618196       4.98526764      -1.03309441
H        7.66796064       5.59043360       1.18113554
H        4.43928814       5.80875349       2.10687447
17
Properties=species:S:1:pos:R:3 energy=-1586.56005859375 pbc="F F F"
N        1.79843342       1.15887451      -1.30217254
C        4.23481941       0.44737378      -0.19874249
C        5.94708157       2.69512749       0.04389834
N        5.15749741       5.20247269      -0.86831027
C        5.31026268       4.79846811       1.87302101
C        7.33714533       6.09990358       3.35764647
O        9.39163685       6.79088211       1.76190507
H        0.64556825      -0.38641119      -1.29166555
H        2.08569074       1.56524122      -3.16776681
H        5.12601423      -0.98462290      -1.40009809
H        3.93456101      -0.40031958       1.66433847
H        7.92025805       2.20481896      -0.19337568
H        3.30227757       5.06671476      -1.42322838
H        3.53456259       4.71320391       2.88933468
H        8.05055428       4.86799145       4.85636950
H        6.58996630       7.82390070       4.22368908
H        8.61752892       7.05362940       0.10121373
15
Properties=species:S:1:pos:R:3 energy=-1523.0899658203125 pbc="F F F"
C        2.14497137      -0.95945174       0.13948068
C        4.65150404      -0.65312713       0.11812678
N        5.91661930       1.60356486      -0.03346705
C        8.46245861       2.14599180      -0.08246765
N       10.23755360       0.44898003      -0.05710752
C        9.42323303       4.80460978      -0.17784213
C        7.98993206       6.88801384      -0.18502308
H        1.32849634      -2.83714032       0.26968282
H        0.85203969       0.62614185       0.02934745
H        5.84781408      -2.31718230       0.23714173
H        4.74729443       3.11506224      -0.11769214
H        9.45295811      -1.30761492      -0.00410071
H       11.47103405       4.96534967      -0.23886138
H        5.94696808       6.86943817      -0.11871260
H        8.88940430       8.73246193      -0.25486737
10
Properties=species:S:1:pos:R:3 energy=-1074.68994140625 pbc="F F F"
O        6.00689125      -1.73314345      -2.53691959
C        4.75904846       0.15195288      -2.08695674
O        5.52331066       2.23195553      -0.81917739
C        8.10520554       2.20771027       0.00000000
C        9.01609135       4.77994871       0.00000000
C        9.76684189       6.90003252       0.00000000
H        2.77714157       0.40604547      -2.66774535
H        9.29399395       1.05163264      -1.24064302
H        8.16590309       1.40518141       1.90593994
H       10.43334770       8.80054951      -0.00289128
16
Properties=species:S:1:pos:R:3 energy=-1583.199951171875 pbc="F F F"
C       -2.81442571       1.46506691       0.49945462
C       -2.58195162      -1.29574740      -0.29058319
C       -0.03477096      -2.31943107       0.40149122
N        2.01291728      -2.09272051      -1.44872069
C        2.10543847      -0.48127544       0.79236215
C        1.59141397       2.30554152       0.63275588
O       -0.78021121       2.90037060      -0.54117978
H       -4.58373880       2.25264812      -0.22720177
H       -2.83249164       1.67299342       2.56159925
H       -2.85981703      -1.46485901      -2.33759117
H       -4.06750345      -2.40798354       0.62644422
H       -0.10210190      -4.04739666       1.49233568
H        3.24649286      -3.56827545      -1.29542613
H        3.57335877      -0.92073125       2.14852405
H        1.58963764       3.12558818       2.53480315
H        3.08497787       3.24484873      -0.44680685
15
Properties=species:S:1:pos:R:3 energy=-1510.239990234375 pbc="F F F"
C        1.77244973       0.27128908       0.35555196
C        4.53207350      -0.25052100      -0.24222510
O        4.81145048      -2.83566642      -1.08065879
C        5.08901358      -2.84035277      -3.79218912
C        5.95702171      -0.27230954      -4.51389456
O        4.07309675       1.66602039      -4.54590607
C        5.56206894       1.37917888      -2.30323601
H        1.49348831       2.23405313       0.94280326
H        1.11747062      -0.97887814       1.86835337
H        0.55918884      -0.09822796      -1.28085637
H        5.66696739      -0.03983543       1.47570598
H        6.46286345      -4.29776621      -4.29973173
H        3.26299000      -3.30709624      -4.64575958
H        7.62653780      -0.13046670      -5.66364145
H        6.93208218       2.78817749      -1.77724969
15
Properties=species:S:1:pos:R:3 energy=-1551.1700439453125 pbc="F F F"
C        1.88972616       0.00000000       0.00000000
C        4.61849070       0.00000000       0.00000000
C        6.86756706       0.00000000       0.00000000
C        9.59633160       0.00000000       0.00000000
O       10.51177216      -1.38528264      -2.11288381
C       10.58516884       2.64722276      -0.21854682
C       12.04853439       3.79288816       1.50824714
H        1.14523077       1.92920256       0.02216649
H        1.14504170      -0.98377252       1.65957642
H        1.14515519      -0.94527882      -1.68183732
H       10.32372475      -0.92362255       1.70304012
H        9.54149151      -0.82339150      -3.56557298
H       10.07411098       3.69093752      -1.91217613
H       12.62898350       2.84171343       3.23012781
H       12.70205879       5.71509886       1.21824980
21
Properties=species:S:1:pos:R:3 energy=-1927.3499755859375 pbc="F F F"
C        2.37578249      -0.31974167       0.59618968
N        5.08922148       0.07681737       0.35844326
C        5.82317209       2.77787852       0.44427460
C        4.94720840       4.11714649       2.85805964
C        8.74587917       3.06201768       0.05637053
C       10.31508923       2.05906439       2.27192330
N        9.56067276       1.74922502      -2.27163982
H        1.94284630      -2.30520129       0.21408707
H        1.30716133       0.82981652      -0.75330150
H        1.71732640       0.08004880       2.51401615
H        5.64164495      -0.56890208      -1.37607968
H        4.91434622       3.73062181      -1.16180360
H        5.50246668       3.07991338       4.56060839
H        2.88912678       4.32839870       2.89099741
H        5.75247765       6.02038383       2.97100854
H        9.16753387       5.07608795      -0.18532544
H        9.96492290       0.04839589       2.62072897
H        9.90155983       3.09319830       4.01589489
H       12.34129143       2.29072595       1.90352118
H        9.46019554      -0.14968520      -1.94244945
H       11.43363667       2.10500383      -2.55698848
14
Properties=species:S:1:pos:R:3 energy=-1422.6099853515625 pbc="F F F"
C        2.14274168      -1.73641264      -0.33971608
C        4.28710842       0.10091138       0.14566009
N        3.35365915       2.65389347       0.40220931
C        3.53363681       4.43101072      -1.48437989
O        4.56673098       4.17529297      -3.53068876
C        2.30401087       6.93899870      -0.83799905
O        1.00803661       7.16943216       1.06359458
H        2.86792397      -3.66368771      -0.52498484
H        1.12289417      -1.25288844      -2.07626104
H        0.77818924      -1.70589352       1.21830642
H        5.66214848       0.00857936      -1.39509034
H        5.25122786      -0.37902236       1.90900135
H        2.35696101       3.16028357       1.96843326
H        2.69981384       8.46867561      -2.19200683
13
Properties=species:S:1:pos:R:3 energy=-1315.7900390625 pbc="F F F"
C        1.37158215       0.19851573      -0.10835689
C        4.11879063      -0.17364694       0.42416793
C        5.86176062       1.63344145       0.12232197
N        8.35729504       1.21084201       0.63222677
C       10.24685097       2.95660877       0.37112331
O       12.46546459       2.50566339       0.84820360
H        0.74935198      -1.13434589      -1.56189644
H        0.95323455       2.11418772      -0.76860833
H        0.26900253      -0.14720966       1.60651290
H        4.66289902      -2.04245377       1.09118462
H        5.35191250       3.51252842      -0.54340965
H        8.93033504      -0.50716472       1.25723481
H        9.59956264       4.81585360      -0.30953714
17
Properties=species:S:1:pos:R:3 energy=-1715.010009765625 pbc="F F F"
C        2.41949201       0.16822343       0.63923764
C        5.01860237      -0.13016434      -0.57870972
C        4.84138393      -1.57232773      -3.05621624
O        2.94356966      -2.65961957      -3.82149863
C        6.22927427       2.42077708      -0.97942615
C        7.95739126       3.50861669       1.00875473
C        9.02788353       2.64361358      -1.47561157
H        2.55250978       1.20439804       2.42574692
H        1.56316257      -1.67592251       1.02699053
H        1.12567210       1.21106875      -0.59794712
H        6.20493460      -1.28321850       0.67136300
H        6.62664604      -1.71186507      -4.12857914
H        4.99862814       3.71937776      -1.98604548
H        8.38779545       2.39124060       2.67212939
H        7.86451101       5.52451992       1.36498702
H        9.65251350       4.07971096      -2.79910016
H       10.18182564       0.95091021      -1.47950435
13
Properties=species:S:1:pos:R:3 energy=-1383.3399658203125 pbc="F F F"
C        5.39240932      -2.23074603       0.67015356
C        4.32832336       0.01868939       0.22663486
C        5.77543783       2.39014459       0.03433632
N        4.75933218       4.58067703      -0.39553857
N        6.71895885       6.43404484      -0.45706806
C        8.84289742       5.29807377      -0.06256884
C        8.58007431       2.53177953       0.31407249
H        4.21973944      -3.91171432       0.79064250
H        7.40897369      -2.48861814       0.92390603
H        2.29892755       0.20269203      -0.01772563
H       10.69016171       6.23921442      -0.00241885
H        9.57242680       1.49596393      -1.16635787
H        9.21188545       1.98897457       2.19956565
21
Properties=species:S:1:pos:R:3 energy=-2050.60009765625 pbc="F F F"
C        2.04389000       0.66261357      -3.18588924
C        4.76139164       1.17735612      -2.62018085
C        5.56303263       2.55050659      -0.64407533
C        8.29980946       3.06231999      -0.07594810
C        8.94602013       5.90082121      -0.03133166
C       11.67786503       6.27443886       0.84291232
C        8.56675243       7.14779472      -2.61451173
H        1.56890738       1.38225913      -5.06531620
H        0.77679080       1.55354381      -1.81542206
H        1.69315684      -1.37471902      -3.16122842
H        6.12879753       0.36906353      -3.92564154
H        4.19258404       3.34927511       0.66499460
H        9.52378464       2.08909225      -1.43874300
H        8.71717453       2.23692560       1.78021646
H        7.70577383       6.85284615       1.33331513
H       13.01174736       5.36617994      -0.45274058
H       11.96319485       5.46797943       2.72685599
H       12.14967251       8.28671360       0.94146156
H        9.72167683       6.23044586      -4.06582117
H        9.09819984       9.14689827      -2.54540443
H        6.58924818       7.05684233      -3.21278000
14
Properties=species:S:1:pos:R:3 energy=-1408.81005859375 pbc="F F F"
C        2.04855752      -0.11121038       0.97863245
C        4.76210976       0.00000000       0.00000000
N        4.85224962      -1.10501730      -2.52469301
C        5.12338781      -3.60977387      -2.96526384
N        4.86141491      -4.68827820      -5.11707592
C        5.67299557       2.57223845       0.00000000
N        6.39904737       4.62257242       0.00000000
H        1.91081548       0.68041480       2.88757706
H        1.36476016      -2.06458259       1.04947829
H        0.75726998       0.95712739      -0.24090229
H        5.95887327      -1.11803758       1.27116203
H        4.22850800       0.00438416      -3.95566916
H        5.61208963      -4.74139833      -1.28259492
H        4.43709564      -3.38427281      -6.47548676
19
Properties=species:S:1:pos:R:3 energy=-1785.199951171875 pbc="F F F"
C       10.75148392      -4.80370283       0.14787108
C       10.64501667      -2.73233604      -1.82844234
O       11.79060650      -0.52026051      -0.80058247
C       11.68669033       1.55841935      -2.51628375
C       12.42706585       3.95557475      -1.10051978
O       13.17809963       1.15881789      -4.72618628
C       15.81035614       0.92655164      -4.26201296
H        9.90775871      -6.54994202      -0.56827843
H        9.74102783      -4.22888565       1.86020863
H       12.70857811      -5.18480396       0.70199549
H        8.67261505      -2.34263682      -2.32247353
H       11.66395664      -3.33812571      -3.52490616
H        9.72908497       1.79771543      -3.15329146
H       14.27903557       3.75713468      -0.19568114
H       11.07381439       4.34705019       0.41638225
H       12.51004410       5.58045578      -2.37727547
H       16.70608521       0.22980960      -5.99054527
H       16.20553589      -0.41704366      -2.74106669
H       16.63405037       2.77196360      -3.82376623
12
Properties=species:S:1:pos:R:3 energy=-1254.8900146484375 pbc="F F F"
O        5.48109388      -1.57922518      -1.64708531
C        4.12453508       0.16759981      -0.09692405
C        5.42852163       2.64795995       0.13471858
N        4.30037403       4.56873417       1.34395432
O        5.98778629       6.56626940       1.22726369
C        8.09122181       5.83097696      -0.03341036
C        7.84181547       3.36301327      -0.76777685
H        4.45869541      -3.10342169      -1.71704292
H        3.90224671      -0.68476117       1.77609694
H        2.24820709       0.43110323      -0.93069011
H        9.54391098       7.24914074      -0.23787872
H        9.18030834       2.22468019      -1.80274200
18
Properties=species:S:1:pos:R:3 energy=-1649.1800537109375 pbc="F F F"
C        6.07796383      -1.90845335       0.46842530
O        4.86294556      -0.06814352       2.00241041
C        5.45237017       2.45464087       1.20135558
C        3.68082738       4.35031986       2.59213734
N        3.52889347       4.00937510       5.35537052
O        8.07963753       3.04102278       1.38909984
C        9.03727531       3.08036709       3.89383745
H        5.46446419      -3.77875304       1.09668362
H        8.13124561      -1.79716730       0.67217559
H        5.54364395      -1.67847359      -1.51658082
H        4.98420954       2.60436392      -0.81407511
H        1.76216960       4.07353163       1.85833776
H        4.26057673       6.29422426       2.18616748
H        3.30828691       2.11664438       5.68403149
H        1.94125891       4.87313128       6.01435566
H       11.10187626       3.07760787       3.78187108
H        8.45486164       1.41154981       4.96644592
H        8.47305965       4.81513548       4.86190653
16
Properties=species:S:1:pos:R:3 energy=-1563.3699951171875 pbc="F F F"
C        7.98311043      -1.83636022      -0.60737687
O        5.92066336      -0.11070016      -0.55072290
C        6.48735428       2.39220428      -0.26010191
C        8.74880886       3.51489067      -0.00440306
C        9.14255142       6.23594522       0.28175816
C        8.72104836       7.44404697       2.82510281
N       11.26518631       7.02292156       1.85788429
H        7.21306562      -3.74050498      -0.84100372
H        9.03942966      -1.78851235       1.17093098
H        9.22549152      -1.44879639      -2.21617627
H        4.74100161       3.46709943      -0.25603899
H       10.45919991       2.38075256      -0.01687525
H        8.80338383       7.36086130      -1.39900208
H        8.15683270       6.26986551       4.40376091
H        8.06690025       9.38095951       2.89065742
H       12.03135681       8.66386509       1.19234157
16
Properties=species:S:1:pos:R:3 energy=-1533.0 pbc="F F F"
N        1.88524747       0.05572802      -0.17487526
C        4.63776588       0.03834254       0.07430403
C        5.70396805       2.06647229       1.80776870
O        8.19906807       1.21157897       2.44228196
C        8.12977219      -1.50066936       2.52697968
C        5.66534233      -2.36635280       1.29703248
O        6.04190779      -4.32070780      -0.52428561
H        1.33879542      -1.52378070      -1.14067650
H        1.33055615       1.56637514      -1.23310304
H        5.46110058       0.23874800      -1.81965506
H        4.62028599       2.25111747       3.56236053
H        5.81334543       3.91823387       0.89431292
H        9.81667328      -2.24414420       1.58642507
H        8.19515610      -2.07764053       4.51536846
H        4.38119793      -3.10240126       2.74737835
H        7.27349901      -3.71780944      -1.75268316
13
Properties=species:S:1:pos:R:3 energy=-1293.02001953125 pbc="F F F"
C        1.88511515       0.05714532       0.23115130
C        4.72206640      -0.05449970      -0.12113144
N        6.09461260       1.85019302       1.40792155
C        7.89040041      -0.01120608       2.45919514
C        6.13747120      -2.06993032       1.41309941
O        5.95479155      -4.33686495       1.68654275
H        0.97950172      -1.55339265      -0.70152301
H        1.10777640       1.78235185      -0.60775483
H        1.34276378       0.01288793       2.22906423
H        5.28129339      -0.05104150      -2.11568069
H        5.00905943       2.69414473       2.76347876
H        9.75841331       0.01526899       1.57777011
H        8.06159019       0.01470207       4.51517916
17
Properties=species:S:1:pos:R:3 energy=-1659.1800537109375 pbc="F F F"
N        2.30025029       0.08161727       1.15940368
N        4.42059851       0.11625595      -0.25834447
C        5.59975004       2.26481795      -0.35923693
C        4.88736105       4.69555378       0.95132595
C        6.37856293       6.60691738      -0.59719127
C        8.79807377       5.22348642      -1.31585407
C        7.96782255       2.52930403      -1.91593659
H        1.64156735      -1.73497641       1.26772273
H        0.87921399       1.06932044       0.29540199
H        5.55328131       4.61673307       2.90753269
H        2.85872102       5.07771301       0.90155053
H        5.32056189       7.10966015      -2.30523920
H        6.75072527       8.34172344       0.46056405
H        9.75593758       6.11107206      -2.92072296
H       10.11504269       5.22089767       0.28619903
H        7.49437046       2.30317926      -3.91247010
H        9.38729000       1.13755846      -1.36485469
15
Properties=species:S:1:pos:R:3 energy=-1578.43994140625 pbc="F F F"
C        2.26617837      -0.97375697      -0.46872768
C        4.71549034      -0.45272169      -0.12249205
C        5.71528769       2.08298850      -0.17678387
C        8.17877293       2.58918929       0.14329793
C        9.27694893       5.20050764       0.08961082
C       10.44207859       5.75317669       2.63272858
O       12.71443653       5.56571579       3.06972790
H        1.59891617      -2.91320181      -0.41432247
H        0.87163615       0.48964694      -0.81670183
H        6.02624226      -2.00224042       0.21382251
H        4.38193464       3.61514068      -0.50096637
H        9.51879597       1.05582774       0.44673127
H        7.85912514       6.65572882      -0.30449158
H       10.73902988       5.32179022      -1.36574292
H        9.10356712       6.27593184       4.14362144
15
Properties=species:S:1:pos:R:3 energy=-1461.5400390625 pbc="F F F"
O        4.17557669      -1.00025094       2.24034595
C        4.27406931       0.07883938      -0.20953283
C        5.37906742       2.68770075      -0.06220978
N        7.73674679       3.17604375      -0.53783494
N        8.04276848       5.66806364      -0.03240880
C        5.63548470       7.00614071       0.07762995
C        3.84226680       4.89569473       0.80810356
H        5.92107868      -1.10611343       2.82442236
H        2.35703659       0.18092237      -0.97267985
H        5.42432642      -1.12321544      -1.43624854
H        9.33698559       6.51450968      -1.18678582
H        5.14901257       7.76178551      -1.78773761
H        5.65071583       8.55002785       1.44991124
H        2.03325081       4.99847698      -0.17969406
H        3.55756068       4.76275253       2.85136986
17
Properties=species:S:1:pos:R:3 energy=-1722.739990234375 pbc="F F F"
C        1.70544004       0.16164717      -0.10134602
C        4.56075954      -0.16461404      -0.07651501
C        5.91457844       2.38774467       0.05172180
C        8.73968124       2.08962131       0.05810908
C       10.16513920       2.15920115       2.15479803
C       10.04019070       1.77409375      -2.41344476
O        8.90454102       1.73996532      -4.43031168
H        0.77476883      -1.68463421      -0.14609472
H        1.09768522       1.22769833      -1.76623249
H        1.05775535       1.16594207       1.58684087
H        5.13585997      -1.20409572      -1.77428281
H        5.09203720      -1.32715464       1.55571699
H        5.31304073       3.39360809       1.76351130
H        5.33545256       3.58702135      -1.53717887
H        9.30395317       2.40683079       4.00187302
H       12.20679951       1.96506953       2.11106968
H       12.11374950       1.57433081      -2.33218670
11
Properties=species:S:1:pos:R:3 energy=-1158.300048828125 pbc="F F F"
N        1.91174150       0.00725655      -0.01462648
C        4.66762352       0.00000000       0.00000000
C        5.57463551      -1.47888076      -2.17360091
C        6.31433105      -2.68855119      -3.94809151
C        5.57850933       2.57223845       0.00000000
C        6.32925987       4.69232225       0.00000000
H        1.29618204       0.90689850       1.56711209
H        1.29727805      -1.80890250       0.10436957
H        5.29616547      -0.94063008       1.73658276
H        6.96320629      -3.74279165      -5.53587723
H        6.99266720       6.59297085      -0.02044684
13
Properties=species:S:1:pos:R:3 energy=-1273.47998046875 pbc="F F F"
C        0.80596823       2.73348880       0.38202703
C        2.52883148       0.53902549      -0.24339673
O        1.70237863      -1.57708979       1.21091759
N       -0.63254803      -2.53822351       0.35876450
C       -2.31738997      -0.82722759      -0.12700850
C       -1.93753624       1.98402345       0.02233656
H        1.27569747       4.39244175      -0.75925416
H        1.08362567       3.26450181       2.36544585
H        4.48035192       0.96918386       0.29920033
H        2.51463962       0.06508217      -2.26135969
H       -4.21287966      -1.47519577      -0.70883626
H       -2.65755963       2.78073192      -1.74814785
H       -3.12507796       2.73309207       1.54071259
17
Properties=species:S:1:pos:R:3 energy=-1668.8199462890625 pbc="F F F"
C        1.11095107       0.67338502       2.09648108
C        2.65111566       1.23726034      -0.25675708
C        5.35554075       1.89050090       0.44372660
N        5.97387791       4.22595692       0.88144386
N        7.18846130       0.08380935       0.67861956
C        7.12725306      -2.48678517       0.43503386
C        9.08674812      -4.05712843       0.69825381
H       -0.83646840       0.20367469       1.58612275
H        1.07111561       2.30867839       3.36354256
H        1.90730059      -0.91774547       3.15079713
H        1.81173718       2.83600640      -1.27129436
H        2.61906600      -0.37520513      -1.55010450
H        4.43397760       5.38299847       0.66660088
H        8.89252186       0.83189523       1.14579761
H        5.27904463      -3.26367044      -0.00786126
H       10.96732807      -3.37482405       1.14101660
H        8.84104633      -6.08006144       0.46770722
19
Properties=species:S:1:pos:R:3 energy=-1901.449951171875 pbc="F F F"
C        3.39528990      -1.65105367       1.78116131
C        6.05865097      -0.71989119       1.20116663
C        6.33381414       2.17388415       1.39805722
C        5.88224506       3.10079503       4.06062460
C        4.10251999       4.78661966       4.70248890
C        8.94702148       2.95093966       0.54416555
C        9.41017437       4.55391884      -1.36224687
H        3.27822137      -3.69430113       1.47937214
H        2.00707817      -0.74211437       0.54633874
H        2.86951137      -1.27654779       3.74536157
H        6.55047131      -1.32775939      -0.72079825
H        7.39192820      -1.66654944       2.47854590
H        4.92974758       3.02885294       0.12925726
H        7.09454203       2.33734560       5.53568792
H        2.84764719       5.61280775       3.30652952
H        3.87652755       5.38057947       6.65244055
H       10.54247952       2.14468789       1.56180191
H        7.89145851       5.42255020      -2.43273902
H       11.33370781       5.04018307      -1.87925708
11
Properties=species:S:1:pos:R:3 energy=-1224.1800537109375 pbc="F F F"
N        2.06758714      -0.15236862       0.56561393
C        4.43010378      -0.15527880       0.01398397
N        6.06575632      -2.10131884      -0.36834541
C        8.42774391      -1.21910012      -0.94939840
C        8.60613441       1.31558955      -0.99649036
C        6.02539158       2.23465776      -0.37048081
O        5.28174686       4.38726377      -0.19278987
H        1.48298144       1.70330465       0.69783807
H        5.57242441      -3.94117498      -0.28466836
H        9.93020821      -2.55732870      -1.31806505
H       10.19641399       2.51133275      -1.38970459
15
Properties=species:S:1:pos:R:3 energy=-1527.0899658203125 pbc="F F F"
O        2.08457589       0.04089367       1.22310638
C        4.62329054       0.01729099       0.29921925
C        5.09593010       2.25860071      -1.46446216
O        7.53222179       2.23894763      -2.63499641
C        8.20409489      -0.06117044      -3.61039734
C        7.14038706      -2.26615953      -3.02038717
C        5.09604359      -2.48689842      -1.07914698
H        1.76033664       1.70542109       1.94095659
H        5.90129328       0.14150269       1.92621672
H        4.93706083       4.02462530      -0.39039853
H        3.63751483       2.36610723      -2.93980908
H        9.76829720       0.13177060      -4.91946745
H        7.79311705      -3.99246216      -3.92288256
H        3.36450624      -3.16179538      -1.98493052
H        5.62112284      -3.92620850       0.31231505
19
Properties=species:S:1:pos:R:3 energy=-1919.8499755859375 pbc="F F F"
C        1.53287029       0.05769334       0.20934387
C        4.05580568       0.14855137       0.39068198
C        5.69036245       2.47357583       0.32881236
C        4.37248611       5.04585218       0.25505632
C        6.50211287       6.87145996       0.88592249
C        8.09384823       5.49496460       2.85773826
C        7.37469387       2.70058870       2.67615461
H        0.54970241      -1.74289441       0.26497740
H        0.38147902       1.73998427      -0.00368497
H        5.06711149      -1.63574696       0.57676333
H        6.91588736       2.32073498      -1.34123313
H        2.88763380       5.18266821       1.69500875
H        3.53150129       5.45310688      -1.58988333
H        7.64483023       7.23561001      -0.80439973
H        5.79979610       8.68967915       1.57565367
H       10.11207581       5.78503752       2.50568247
H        7.68853998       6.20912981       4.75846291
H        9.05218506       1.49575603       2.53251648
H        6.35488462       2.13586307       4.39149666
20
Properties=species:S:1:pos:R:3 energy=-1909.2099609375 pbc="F F F"
C        1.54878175       0.38149792      -2.18724465
C        4.26632118       1.13914585      -2.22006917
C        5.36139870       2.58327460      -0.44066525
C        8.09621048       3.35452843      -0.47382993
N        8.42335987       6.11222458      -0.45111543
C       11.10682774       6.72682047      -0.14550892
C        7.46948290       7.27342367      -2.77836990
H        0.56767374       1.21108770      -3.80609751
H        0.58632535       0.99061334      -0.46037507
H        1.39255810      -1.67658389      -2.31680417
H        5.37778282       0.46783951      -3.81269264
H        4.25590897       3.27070022       1.15027630
H        9.08740997       2.50362253      -2.08512378
H        8.94787216       2.55566573       1.23794067
H       11.82025623       5.99927568       1.65732765
H       11.39030552       8.77738094      -0.10605143
H       12.26762962       5.94088316      -1.67265332
H        5.42498779       7.01281166      -2.96541500
H        8.38828659       6.50740433      -4.46963692
H        7.77968121       9.32154655      -2.74535632
12
Properties=species:S:1:pos:R:3 energy=-1241.550048828125 pbc="F F F"
C        5.72881794      -2.01270962       1.01289320
O        4.25229931       0.17546107       0.50612533
C        5.69257307       2.27746010       0.28977060
C        4.54883528       4.56659889      -0.20237078
S        6.78298283       6.90460587      -0.38321757
C        9.07495594       4.68973351       0.20509198
N        8.29155159       2.35355949       0.52284944
H        4.44359636      -3.62581754       1.16187918
H        6.73539972      -1.83498073       2.81363225
H        7.05206108      -2.39634275      -0.53282720
H        2.56154275       4.95442724      -0.45540509
H       11.05208206       5.20162249       0.30624902
19
Properties=species:S:1:pos:R:3 energy=-1837.8699951171875 pbc="F F F"
C        7.67822170      -1.72887266       0.52659106
O        6.61583662       0.12946513       2.14465022
C        6.48601246       2.58100677       1.01068223
C        4.55771685       4.09673738       2.52724409
C        9.04182911       3.82357740       1.12748623
C       10.73366356       3.89899635      -1.16958928
C        9.53115463       6.28821468      -0.22022869
H        7.61400890      -3.54862213       1.50677311
H        9.65273952      -1.29767489       0.09758545
H        6.58261538      -1.89008522      -1.21993160
H        5.80170488       2.42007780      -0.94163162
H        5.14305973       4.27711153       4.50471020
H        2.72334099       3.13736105       2.52765989
H        4.30702591       5.99746180       1.74986756
H        9.92486095       3.57090211       2.96129537
H       10.04242039       3.12415195      -2.93480134
H       12.74624062       3.65493822      -0.88046122
H       10.73226452       7.66236687       0.71773690
H        8.03246975       7.11965656      -1.34079850
12
Properties=species:S:1:pos:R:3 energy=-1362.760009765625 pbc="F F F"
C        1.88972616       0.00000000       0.00000000
C        4.61849070       0.00000000       0.00000000
C        6.86756706       0.00000000       0.00000000
C        9.52452183       0.00000000       0.00000000
C       10.76739502      -2.21313381       0.00000000
C       10.91156197       2.32065940       0.00000000
N       12.06425762       4.18404245       0.00000000
H        1.14513624       1.92914581       0.02207200
H        1.14513624      -0.98371583       1.65965199
H        1.14513624      -0.94546777      -1.68172395
H        9.76756001      -4.00574684       0.00000000
H       12.81914616      -2.29418421       0.00000000
15
Properties=species:S:1:pos:R:3 energy=-1513.75 pbc="F F F"
C        4.41062069      -0.56508482      -3.10372400
O        4.09407282       1.00582564      -0.95518094
C        6.18868303       2.63552547      -0.56933671
O        6.62619257       2.98246026       2.08854413
C        5.70566893       5.43549490       2.79093647
C        5.29270697       6.80118084       0.38266954
C        5.55842161       5.19451714      -1.53833151
H        2.70814753      -1.71481311      -3.32620144
H        6.02512741      -1.83105016      -2.84254503
H        4.66469431       0.57116973      -4.81292439
H        7.93348598       1.89074659      -1.39926660
H        7.12878418       6.36096954       3.96867061
H        3.95105839       5.22530079       3.86380959
H        4.78359604       8.76978397       0.23568664
H        5.30242014       5.64119148      -3.50912690
14
Properties=species:S:1:pos:R:3 energy=-1387.010009765625 pbc="F F F"
C        2.75833869      -0.70709771      -0.42180577
O        5.38917780      -0.16578567      -0.36672026
C        5.85291624       2.47230983      -0.01766894
C        8.70022392       2.92064738       0.03454419
C        9.30552197       5.61099386       0.37514845
C        9.80892563       7.80468225       0.65148306
H        2.51815462      -2.73934698      -0.70554817
H        1.84569550       0.29080996      -1.98615885
H        1.87430596      -0.18145150       1.37207341
H        4.99424362       3.09351945       1.76390815
H        4.98566437       3.53488398      -1.57206321
H        9.54334354       2.21583629      -1.72223973
H        9.54838943       1.79913270       1.55668080
H       10.26414204       9.75249863       0.89610815
12
Properties=species:S:1:pos:R:3 energy=-1292.77001953125 pbc="F F F"
C        1.89152133      -0.10232867       0.00619830
C        4.76210976       0.00000000       0.00000000
C        5.67299557       2.57223845       0.00000000
C        6.42374611       4.69232225       0.00000000
C        7.39041662       7.42193699       0.00000000
C        8.14730835       9.55745983       0.00000000
H        1.24253273      -2.06649113       0.00343930
H        1.10507405       0.83654398      -1.66305351
H        1.11276519       0.82926852       1.68312240
H        5.47156954      -1.00661933      -1.66477311
H        5.47899628      -1.00960505       1.65976536
H        8.82018375      11.45502853       0.00000000
15
Properties=species:S:1:pos:R:3 energy=-1519.52001953125 pbc="F F F"
O        0.58080733      -1.02109456       0.25998852
C        3.11753798      -1.76184833       0.78880948
C        4.51276064      -2.33609843      -1.68251765
C        3.53127456      -4.68391275      -2.95802617
C        4.98953819      -6.56974649      -3.80655098
C        4.48585081       0.33780745       2.20020819
O        3.38926172       2.20219231       3.05324936
H        0.15234973       0.29606339       1.48660970
H        3.07318592      -3.41656804       2.02882886
H        6.54754210      -2.52083802      -1.32532167
H        4.26533842      -0.75347161      -2.99973226
H        1.49125850      -4.80394840      -3.21421623
H        7.03357935      -6.52985430      -3.63583302
H        4.15108585      -8.19984341      -4.73151541
H        6.52066994       0.03484655       2.54417610
15
Properties=species:S:1:pos:R:3 energy=-1450.18994140625 pbc="F F F"
C        1.99141228      -0.01105490       0.02262002
C        4.81307554       0.05079584      -0.07613707
N        6.16283178      -1.98642337      -0.22557661
O        8.72804070      -1.23308408      -0.13211076
C        8.82874393       1.41863632      -0.65577275
C        6.27606392       2.45558572       0.14318454
N        5.26456928       4.45512390      -1.48349166
H        1.31145108      -1.96017516      -0.07757325
H        1.20698702       1.05038536      -1.56541133
H        1.34981251       0.83733767       1.79440832
H        9.19134426       1.65112936      -2.68273091
H       10.38546276       2.28664422       0.39183471
H        6.26888323       3.04253459       2.12620640
H        5.30782509       3.88021255      -3.32656050
H        6.41633844       5.99834967      -1.39250135
12
Properties=species:S:1:pos:R:3 energy=-1240.0799560546875 pbc="F F F"
C        9.82478046      -2.96996927       1.56456101
C        8.21947765      -1.02060330       1.46939433
C        5.67885399      -1.34149766       0.36670136
N        4.10291672       0.51753932       0.24264084
O        1.84907818      -0.32384238      -0.88584691
C        0.16831791       1.63209975      -1.07967615
O        0.42382777       3.83525586      -0.43726373
H       11.69336033      -2.72696924       2.37634945
H        9.34477139      -4.83068800       0.85117042
H        8.70162201       0.83917069       2.18089509
H        5.20103645      -3.24581242      -0.34393016
H       -1.56452322       0.88754767      -1.95881450
15
Properties=species:S:1:pos:R:3 energy=-1426.3199462890625 pbc="F F F"
N        2.67235613      -0.76318479      -1.50871956
C        5.39375067      -0.51081187      -0.97678053
C        6.07015944       2.26674533      -0.37964597
O        4.48500061       3.12965107       1.62414408
C        8.75143528       2.55702615       0.47704247
C       10.53705597       3.83380079      -0.78748667
H        2.28135300      -2.62129593      -1.84820890
H        2.26396751       0.16217630      -3.15164757
H        6.49619818      -1.20647681      -2.58601451
H        5.81746531      -1.70940852       0.66076165
H        5.68042231       3.45256734      -2.03255153
H        2.87805295       2.25829840       1.33958912
H        9.23346615       1.68966079       2.27730894
H       10.14019489       4.76645613      -2.57002759
H       12.43832874       3.99495673      -0.03393948
20
Properties=species:S:1:pos:R:3 energy=-1913.5799560546875 pbc="F F F"
C        2.35594058       0.02148619      -1.23004162
C        5.19207907       0.13001315      -1.67193520
C        6.59191275       1.12113667       0.65252244
C        9.42285442       1.19253063       0.14751202
C       10.44238091       3.31718755      -1.58035910
C       12.58124828       3.51632690       0.37771845
N       10.82860279       2.41682744       2.25580382
H        1.39584625      -0.70649302      -2.91068840
H        1.59836817       1.90278411      -0.82218206
H        1.89996850      -1.22167015       0.35935032
H        5.58143854       1.34214020      -3.30760646
H        5.88249063      -1.76428616      -2.15485477
H        6.20147657      -0.12052673       2.26700997
H        5.87993956       3.00441885       1.14534414
H       10.19085884      -0.67865735      -0.32832101
H        9.24620342       5.00524187      -1.69155061
H       11.00682354       2.75238609      -3.48465490
H       14.22175789       2.32065940      -0.03433632
H       13.22753525       5.43046808       0.80736661
H       11.64143085       1.19392896       3.50033975
16
Properties=species:S:1:pos:R:3 energy=-1599.8699951171875 pbc="F F F"
C        1.78896594       0.77284127       0.26958832
N        4.52727365       0.88363594       0.28030309
C        5.94031620      -1.45658195       0.01339816
C        6.13715029      -2.10267949      -2.73753285
C        5.27426338      -4.24007320      -3.78614187
C        5.78951597       3.14752793       0.54448682
O        8.08829212       3.42682934       0.57912546
H        0.96959960       2.66938925       0.31040642
H        1.16573429      -0.26204833       1.94630456
H        1.13918364      -0.20401484      -1.43037152
H        4.98613691      -2.93517923       1.10399687
H        7.84582186      -1.23136449       0.78926301
H        7.09577036      -0.72367060      -3.92463994
H        4.33308554      -5.68671513      -2.67793083
H        5.51221752      -4.58757496      -5.79486418
H        4.50497484       4.77611256       0.73610502
19
Properties=species:S:1:pos:R:3 energy=-1790.47998046875 pbc="F F F"
C        5.11718941      -2.29344726      -0.85194522
C        4.20541525       0.10661834       0.44499272
C        6.21219110       2.15198231       0.49588305
N        8.46198559       1.64816248       2.09306073
C        6.62324429       3.68866992      -1.87186825
C        5.32262135       4.88505554       0.34400573
N        6.67850018       6.81849098       1.81073558
H        3.59841657      -3.69683337      -0.91056454
H        6.71952581      -3.13208890       0.15272766
H        5.71642160      -1.90852892      -2.79460263
H        3.62706470      -0.33444372       2.38572264
H        2.50959420       0.78021121      -0.53730583
H        7.91475868       1.07820213       3.84999585
H        9.49120617       0.19828896       1.35121083
H        5.48568583       3.28024340      -3.52488732
H        8.52338314       4.30192375      -2.32912517
H        3.31036544       5.23990822       0.13458629
H        8.46665382       6.13824606       2.12231374
H        5.91646814       6.93710899       3.57547522
21
Properties=species:S:1:pos:R:3 energy=-1991.3399658203125 pbc="F F F"
C        1.72278774       3.69949794       1.96021295
C        4.58645964       3.87431645       2.14871311
C        5.86056995       2.82408237      -0.22457506
C        8.77037048       2.87716484      -0.09669729
C        9.86871719       1.34792280      -2.30200768
C        9.81194973       5.58535004      -0.11946849
O       12.49517155       5.58255339       0.04168736
H        0.84455639       4.42054176       3.68987918
H        1.11000621       1.74026763       1.69827795
H        1.01723957       4.81927395       0.36910132
H        5.22231483       2.81741166       3.81129408
H        5.10199594       5.85578871       2.44197965
H        5.21700478       3.88161087      -1.88768518
H        5.23401213       0.86468196      -0.48979813
H        9.38906670       1.94518960       1.65073252
H        9.35410690       2.18707442      -4.12173843
H        9.16071224      -0.59603852      -2.26961780
H       11.93229771       1.25543952      -2.19629645
H        9.10052395       6.69036770       1.47447777
H        9.28116322       6.56645823      -1.86155033
H       12.95350552       4.72754669       1.60203421
16
Properties=species:S:1:pos:R:3 energy=-1484.1500244140625 pbc="F F F"
N        1.94235504       0.03754886       0.14484751
C        4.68682337      -0.01596818      -0.09741538
C        5.85896349       1.97005844       1.69867480
C        7.85217094      -0.07188518       2.37400627
C        5.79671621      -2.04560971       1.71403825
N        6.92030954      -4.10656404       0.26042315
H        1.06879127      -1.45803714      -0.69666642
H        1.13228607       1.61813474      -0.59652984
H        5.41544485       0.03537567      -2.03412008
H        4.69147205       2.53319669       3.31803775
H        6.60493279       3.67005610       0.79221100
H        9.51097298      -0.02887502       1.13009405
H        8.49365711      -0.06666954       4.33837652
H        4.62831736      -2.62755084       3.32157159
H        7.98564243      -3.55030417      -1.24328864
H        5.61095572      -5.33316612      -0.43766057
14
Properties=species:S:1:pos:R:3 energy=-1428.7900390625 pbc="F F F"
C        1.79750752      -0.00504557       0.16930057
C        4.64929342       0.04986987      -0.05183519
C        6.04391098       2.02399111       1.62724316
C        7.96808672      -0.00404401       2.49137712
C        6.09240150      -1.98738718       1.46897864
O        5.84159708      -4.24390936       1.76863253
H        1.02014971      -1.64054680      -0.83267003
H        0.97086573       1.69886374      -0.66446549
H        1.18296862      -0.11498983       2.14287376
H        5.27031374       0.09348475      -2.03026509
H        4.90499210       2.77976823       3.18547344
H        6.86660337       3.61565089       0.59486687
H        9.76315689       0.00961871       1.46725893
H        8.30251217      -0.09522330       4.52445793
19
Properties=species:S:1:pos:R:3 energy=-1776.5799560546875 pbc="F F F"
N        4.33557987      -0.06236096       6.56744099
C        6.07221937      -0.35574093       4.43135118
C        7.20029116       2.19831848       3.60270619
N        8.86655712       1.89259851       1.40172327
C       10.12016392       4.33699703       0.79124725
C       12.56745338       2.82699251       0.35417247
C       11.37908077       0.88960749       2.17137098
H        3.61425233      -1.79002416       7.02382851
H        2.83152795       1.00990748       6.01720905
H        5.05465841      -1.23030615       2.85263610
H        7.58434010      -1.65343475       4.99494314
H        8.16743374       3.08701873       5.20923805
H        5.64480114       3.45974851       3.06838608
H       10.25577068       5.70247555       2.34692645
H        9.36943245       5.29871655      -0.87732428
H       12.80423641       2.13678885      -1.58466768
H       14.31854916       3.71782827       0.98698509
H       11.70371628      -1.09118462       1.67645168
H       11.90948868       1.18053079       4.15478945
19
Properties=species:S:1:pos:R:3 energy=-1846.81005859375 pbc="F F F"
C        4.23784304       8.59643936       0.56491470
C        6.94631195       7.66030741       0.46666786
O        6.89750051       4.98751640       0.10905609
C        9.16658878       3.75978017      -0.03781342
C       11.51172066       4.71936417       0.06156728
C       13.94814396       3.25703740      -0.10707188
C       13.73407555       0.39534959      -0.31741729
H        4.17449951      10.63842106       0.88021553
H        3.19233322       7.65233278       2.08147669
H        3.25412726       8.16412735      -1.20405793
H        7.89429331       8.12119293       2.25009680
H        7.92779779       8.57697582      -1.11019516
H        8.78928661       1.75744534      -0.26696160
H       11.77902222       6.74256182       0.28266522
H       15.07752037       3.70688677       1.57098603
H       15.00597477       3.96283126      -1.74264872
H       12.76169872      -0.40872887       1.32314849
H       15.62057114      -0.45051071      -0.40886116
H       12.71131802      -0.16104247      -2.02786517
17
Properties=species:S:1:pos:R:3 energy=-1648.68994140625 pbc="F F F"
O        1.55477214       0.33582324       0.12113144
C        4.19347239      -0.16482191       0.37807751
C        5.66613579       2.31043577       0.78193086
C        4.66938114       3.76869965       3.09380293
O        2.17411113       4.69731092       2.68137026
C        8.45648670       1.76447511       1.05561996
C       10.23023987       2.64461493      -0.52129984
H        0.75528574      -1.26352763      -0.32493842
H        4.83887053      -1.11828327      -1.34331179
H        4.44622326      -1.45626080       1.97650230
H        5.32366085       3.50253177      -0.88323909
H        5.86769390       5.40505123       3.50313640
H        4.63959885       2.56972528       4.78325605
H        1.25542068       3.34562778       1.80370581
H        9.03578186       0.59378976       2.64431262
H        9.75911236       3.83257246      -2.12571502
H       12.21320534       2.19996238      -0.22676714
15
Properties=species:S:1:pos:R:3 energy=-1511.280029296875 pbc="F F F"
O        2.14389420       0.28323215       0.43150008
C        4.76481199      -0.06391054      -0.07536228
C        5.29633522      -2.76240158      -1.01149476
O        5.49415207      -2.64333010      -3.73298383
C        6.11400127      -0.07551346      -4.42734480
C        3.99835825       1.79236746      -4.59783602
C        5.55851603       1.59662962      -2.21559048
H        1.84490180       2.09421349       0.49389881
H        5.80325460       0.32697931       1.67012107
H        3.81276822      -4.10516548      -0.49692237
H        7.12181091      -3.43508744      -0.30702379
H        7.80791378       0.25966728      -5.52618265
H        4.27047873       3.43185616      -5.79325771
H        2.08417892       1.06210172      -4.60165310
H        6.89126444       3.06046820      -1.72851360
18
Properties=species:S:1:pos:R:3 energy=-1624.5899658203125 pbc="F F F"
C        1.68510664      -0.65135080       0.14318454
N        4.37199497      -0.05317689      -0.15272766
C        5.49817705      -1.75264537      -2.02899885
C        4.76035261       2.59965849      -0.93257987
C        4.02528667       4.54456472       1.11250067
N        4.65337515       7.12865162       0.33542639
H        0.84754217       0.42087981       1.70026219
H        1.43530369      -2.64867783       0.63141418
H        0.60359740      -0.26818994      -1.58081257
H        5.28862524      -3.72705007      -1.44148314
H        7.53191948      -1.40455782      -2.20001912
H        4.63685894      -1.53288913      -3.89967656
H        3.73098087       3.00496697      -2.68900466
H        6.77691698       2.87166572      -1.34450233
H        5.01200724       4.11659813       2.88230467
H        1.99330199       4.47156429       1.48800814
H        6.56160164       7.27276230       0.10837580
H        4.19817781       8.33509064       1.76696956
20
Properties=species:S:1:pos:R:3 energy=-1906.6400146484375 pbc="F F F"
C        0.87887383      -0.93889153      -1.33887100
C        3.61604762      -1.05590332      -0.47252601
C        4.85413933       1.55412972      -0.52360535
C        7.62306070       1.41156876       0.30609784
N        8.73729992       3.95311809       0.31070876
C       11.48961067       3.93059254       0.13400048
C        9.87533092       4.67416191      -2.09470463
H        0.02793015      -2.82319427      -1.27932572
H        0.74587488      -0.23606458      -3.27977085
H       -0.23309772       0.30743954      -0.11841024
H        4.66046143      -2.35607266      -1.70122600
H        3.69014382      -1.83169270       1.44656646
H        3.81021690       2.83853865       0.72501230
H        4.73374510       2.33386850      -2.44094038
H        8.64748096       0.07976534      -0.91290778
H        7.72251701       0.65647197       2.23314595
H       12.46077824       2.13187575       0.08044564
H       12.45720673       5.41552067       1.15407467
H        9.75064659       6.66154909      -2.57099128
H        9.72696877       3.38739085      -3.67931557
11
Properties=species:S:1:pos:R:3 energy=-1280.5 pbc="F F F"
O        2.14773035       0.04550460      -0.87403613
C        4.36967039      -0.02836479      -0.26790649
C        5.93391037      -2.36219549       0.06948523
C        8.40616322      -1.21280730       0.82679296
O       10.33721733      -2.35749006       1.34694004
C        8.23108006       1.57310247       0.87173069
C        5.88532543       2.26130295       0.23566775
H        6.12324190      -3.36994863      -1.71940517
H        5.17866230      -3.52853441       1.59218872
H        9.80505180       2.76886463       1.35408330
H        5.12421942       4.14216614       0.08492430
15
Properties=species:S:1:pos:R:3 energy=-1472.8199462890625 pbc="F F F"
C        1.86924148       0.18734744      -0.64853513
C        4.65407419       0.02416960      -0.07772443
C        5.76370239      -2.24006248       0.23612128
C        6.01664257       2.44872594       0.00738883
C        5.45102835       4.30111122       2.09986377
N        7.79927778       2.87181687       2.07820749
H        1.55858946       1.22718811      -2.41051579
H        0.87505656       1.17032623       0.87628490
H        1.00348234      -1.68030667      -0.86260331
H        4.70779896      -3.99404955       0.13825236
H        7.77346420      -2.37474322       0.63273698
H        6.56655264       3.19906068      -1.82075107
H        4.11416054       3.78446007       3.56060314
H        5.58425426       6.30202866       1.69652057
H        9.27547550       3.95559359       1.47574377
19
Properties=species:S:1:pos:R:3 energy=-1861.760009765625 pbc="F F F"
C        1.07219279      -0.38629782      -1.87464607
C        3.74001360      -0.98280877      -0.99114245
C        5.09789515       1.38537717      -0.04731874
C        7.76762486       0.76911855       0.87038898
C        9.13777065       3.13507462       1.78225744
C       11.76942253       2.58040214       2.73311090
O       12.74408627       0.47638106       2.77426910
H        0.14276882      -2.10381317      -2.55634594
H        1.09180820       0.98963070      -3.41938376
H       -0.06440187       0.38788518      -0.32903913
H        4.80238008      -1.82403922      -2.55785775
H        3.65439010      -2.39626718       0.52061957
H        4.01326799       2.23960900       1.49883628
H        5.19236279       2.78532410      -1.57302690
H        8.84849167      -0.11430953      -0.66265136
H        7.67283630      -0.61913097       2.40760565
H        8.09261990       4.02532434       3.33109593
H        9.30896091       4.50969934       0.24430379
H       12.82358742       4.24288893       3.42074442
17
Properties=species:S:1:pos:R:3 energy=-1654.93994140625 pbc="F F F"
C        3.40145040       2.95179009      -2.68828654
C        5.79975843       2.01741505      -1.43235576
O        7.51262522       4.08985853      -1.22934246
C        9.78226185       3.39050889       0.05308241
C       11.49125481       5.68571329       0.20664155
C       10.33651829       7.59839964       1.95858777
O       11.38934135       8.35041618       3.88499355
H        2.02145886       1.42470229      -2.87221360
H        3.81118083       3.71374655      -4.56792164
H        2.55576015       4.48726797      -1.58818257
H        6.65782642       0.51529050      -2.56910157
H        5.36240005       1.28047848       0.45213586
H       10.72931671       1.89120007      -1.01595461
H        9.32254791       2.68635917       1.94647455
H       11.71959019       6.58516645      -1.64152956
H       13.35329628       5.15488958       0.93462074
H        8.47521400       8.35069942       1.39501476
15
Properties=species:S:1:pos:R:3 energy=-1478.3800048828125 pbc="F F F"
C        2.72249055      -0.60380530      -1.98827541
N        5.26615667      -0.48807847      -0.92717522
N        6.22067595       1.87874687      -0.65845615
C        8.61131191       2.00961041      -0.13774213
C       10.46634293      -0.09853032       0.17491305
C        9.43396664       4.59108973       0.13859251
C       10.12485027       6.74197578       0.36836430
H        2.13695908      -2.57656598      -2.18665886
H        2.67158151       0.26752853      -3.86350727
H        1.36383426       0.36137232      -0.76322258
H        5.24580431      -1.41137981       0.77206653
H        9.87468815      -1.32161772       1.73231196
H       12.35385799       0.63441885       0.58810169
H       10.55236340      -1.21188140      -1.56433415
H       10.71495533       8.65621185       0.56311947
12
Properties=species:S:1:pos:R:3 energy=-1116.8900146484375 pbc="F F F"
C        1.95325875      -0.08106925       0.16470852
S        5.29593849      -0.10212080      -0.11920393
O        6.29010439      -1.32927120       2.12220025
O        5.90416574      -1.05575216      -2.61587238
C        6.02656364       3.09516358       0.06345700
C        5.86956501       4.57119083      -1.98596990
H        1.14188588       0.95438731      -1.42451334
H        1.43258250       0.79788017       1.95735943
H        1.29680562      -2.03776717       0.12952183
H        6.63274956       3.80862975       1.88061762
H        5.30740929       3.83527470      -3.82078052
H        6.35507345       6.56148815      -1.87999403
18
Properties=species:S:1:pos:R:3 energy=-1716.030029296875 pbc="F F F"
C        1.75672722      -0.20747304       0.32525966
C        4.60530043       0.03452530      -0.05818467
C        5.38817596      -0.04353929      -2.85454464
O        4.48842096       2.14138103      -4.14358377
C        5.88014746       2.11186337       1.57111835
C        7.81679535       0.07334027       2.27753568
N        5.96847343      -1.87237847       1.51350057
H        1.25695133      -0.31558427       2.33305597
H        1.02171826      -1.90852892      -0.59618968
H        0.76293916       1.42587399      -0.46424901
H        4.64039278      -1.72467744      -3.80205345
H        7.44523764      -0.07060017      -3.06821609
H        2.66436267       1.98268175      -4.30175352
H        4.75209427       2.77462816       3.17908621
H        6.63513088       3.75233459       0.56776822
H        9.53283691       0.09503432       1.11915255
H        8.35852337       0.01199976       4.27028990
H        6.72532749      -3.36229515       0.55784714
14
Properties=species:S:1:pos:R:3 energy=-1380.6099853515625 pbc="F F F"
O        2.47601366       3.88763905      -4.04348469
N        4.95438957       3.14886951      -3.34863257
C        5.46624088       3.30363822      -0.79863608
O        3.82987022       3.86346960       0.75583375
C        8.19857693       2.77062201      -0.11017103
C        9.64185524       5.20598745       0.02649396
C       11.66454220       5.74947309      -1.39522254
H        1.69372380       4.25997162      -2.39936638
H        6.32440329       3.49897909      -4.64309502
H        9.02247810       1.46079612      -1.48611844
H        8.23081589       1.82143140       1.72915614
H        8.97909069       6.59538984       1.39633751
H       12.42092419       4.42834663      -2.76941252
H       12.63312149       7.55006075      -1.18929911
16
Properties=species:S:1:pos:R:3 energy=-1661.780029296875 pbc="F F F"
C        3.44102120      -0.59696448       2.80888891
C        4.28198719       0.17833346       0.17360914
C        5.63032579       2.67774200       0.20626360
C        8.13855934       3.09246135       0.00000000
C       10.09385872       1.04029429      -0.19118360
C        9.02546406       5.59700966       0.00000000
N        9.75153446       7.64734364       0.00000000
H        2.41153622      -2.38836813       2.73033309
H        2.18973899       0.82274896       3.64513063
H        5.06535435      -0.84708863       4.06531096
H        2.61923599       0.35313311      -1.05321991
H        5.44273233      -1.31753600      -0.65911758
H        4.37428141       4.30479622       0.37885231
H        9.36584187      -0.82664180       0.31061429
H       11.67011738       1.42109299       1.09842217
H       10.84551620       0.94408828      -2.11736250
20
Properties=species:S:1:pos:R:3 energy=-1917.9200439453125 pbc="F F F"
C        5.66638184      -1.84631908      -1.44129407
C        4.70175219      -0.11716302       0.67002130
N        5.12694025      -1.33875763       3.12906528
C        5.85805655       2.58639264       0.50459468
C        4.69081068       4.35663128       2.48062468
C        8.71050358       2.64283872       0.75796914
C       10.28443718       3.43493629      -1.06123245
H        5.35187435      -0.98110801      -3.29432178
H        4.66335297      -3.65762162      -1.42165983
H        7.68768930      -2.24798036      -1.25447583
H        2.64967942       0.06789786       0.43280399
H        7.01232004      -1.65625048       3.36199284
H        4.30192375      -3.08182216       3.12689209
H        5.34136772       3.35021996      -1.35638869
H        5.16146564       3.78136086       4.41332293
H        2.62838221       4.39011717       2.30658078
H        5.37077188       6.29609489       2.22233677
H        9.49940777       2.02678800       2.55315232
H        9.59362888       4.09199429      -2.87731600
H       12.31300163       3.45069671      -0.75715655
17
Properties=species:S:1:pos:R:3 energy=-1617.949951171875 pbc="F F F"
C        2.16889548       0.25484848       0.20955174
C        5.00522327      -0.14734195      -0.16548331
C        5.49653292      -1.59568477      -2.61679816
C        6.35758686       2.35832143      -0.19932832
C        7.13932848       3.60402894       2.24195218
N        9.00790882       2.46117926       0.56653988
H        1.79686499       1.24895775       1.98649895
H        1.16717041      -1.55475330       0.26849228
H        1.36105633       1.39059281      -1.32171226
H        5.70041561      -1.30323076       1.41132307
H        4.82414961      -0.53700346      -4.26439381
H        4.53987789      -3.43038201      -2.59508538
H        7.52154446      -1.93530631      -2.87722135
H        5.80750656       3.55844879      -1.76674271
H        6.80516815       2.62252402       4.00620031
H        7.12670517       5.64663410       2.34974217
H        9.95949936       3.81065154      -0.43380553
13
Properties=species:S:1:pos:R:3 energy=-1211.0799560546875 pbc="F F F"
C        1.84333336       0.14836240       0.11895826
C        4.68019009      -0.15580791      -0.05684296
O        5.97212029       1.70118821       1.47787917
C        7.92957449       0.02862935       2.36960316
S        6.09714460      -2.63380575       1.65094030
O        4.59783602      -3.48049760       3.78377986
O        7.42210722      -4.38526058       0.01016673
H        0.88571465      -1.40506804      -0.85740656
H        1.24629331       1.91707051      -0.77178305
H        1.19045186       0.17462960       2.08011603
H        5.34516573      -0.07543787      -2.01629996
H        9.66895390       0.20739745       1.26708031
H        8.30956078       0.27635354       4.38257742
14
Properties=species:S:1:pos:R:3 energy=-1413.8199462890625 pbc="F F F"
C        1.53950322       2.50296116      -1.17680800
C       -0.65813494       1.89658582       0.52744144
C       -2.60086799       0.01889726      -0.28752184
C       -1.33985364      -2.53720307       0.18742304
O        1.34266937      -2.09880543       0.07780003
C        1.78745413       0.50051284       0.80432415
H        1.47479892       1.91051316      -3.13592482
H        2.52860475       4.26979828      -0.87258106
H       -1.23478484       3.18913960       1.99424684
H       -4.37690830       0.18874584       0.75812036
H       -3.01847839       0.25696495      -2.30238557
H       -1.78906047      -3.24834466       2.07828307
H       -1.88320661      -3.95370388      -1.21520734
H        2.95991588       0.87435740       2.44048691
12
Properties=species:S:1:pos:R:3 energy=-1325.989990234375 pbc="F F F"
C        1.76241529       0.04559909      -0.01307691
C        4.54329824       0.02579476      -0.00436527
C        6.27604485       1.87406027       0.00612271
N        8.79257488       1.18143785       0.01436192
C        8.76655293      -1.25683796       0.00992106
C        6.11347198      -2.24085617      -0.00234326
O        5.50554705      -4.44068623      -0.00837149
H        1.02375913       1.97761726       0.00574477
H        1.02375913      -0.93547112       1.65097809
H        1.03451169      -0.89937735      -1.70252991
H        5.81368589       3.87248349       0.00871164
H       10.35637951      -2.58869815       0.01394618
20
Properties=species:S:1:pos:R:3 energy=-1906.8599853515625 pbc="F F F"
C        4.03278875      -0.84090924      -2.53495431
N        4.30649710       0.27595672      -0.02870494
C        6.03803396       2.42943192      -0.15792441
C        4.57330751       4.83565807      -0.93484753
C        6.01683140       6.21803045       1.19491160
C        6.25607061       3.61510277       2.52628040
C        8.70473957       3.13836265       3.93410754
H        2.70298862      -2.42151403      -2.43874836
H        5.83706188      -1.56875610      -3.23844266
H        3.27767324       0.52099752      -3.89619946
H        4.89148045      -1.09602225       1.19345653
H        7.84183455       2.12231374      -1.12973499
H        2.52384257       4.79094696      -0.62699223
H        4.94376945       5.53052902      -2.84498262
H        7.81583166       7.04079819       0.57544053
H        4.94004631       7.65403318       2.21740460
H        4.62378168       3.24481106       3.75923228
H       10.35713577       3.53996730       2.75444603
H        8.81995678       1.16461933       4.54373312
H        8.81791592       4.33197021       5.62002659
18
Properties=species:S:1:pos:R:3 energy=-1745.43994140625 pbc="F F F"
C        2.15789723      -0.04862265       0.15221743
C        4.94165277       0.19462289      -0.59541494
C        6.02603436      -2.37181425      -1.36258698
N        5.27947903       2.14754152      -2.54502654
C        4.77180433       1.56204760      -5.17964506
C        5.65487337       4.63105726      -1.80933714
O        5.83284760       5.39133215       0.36770290
H        1.40593731       1.76615691       0.80296355
H        1.92559314      -1.42031813       1.68376493
H        0.99658489      -0.66992682      -1.44327831
H        5.97606993       0.81537902       1.09141135
H        4.98727083      -3.20212197      -2.94757581
H        5.92990398      -3.70424128       0.21797991
H        8.00932121      -2.19013596      -1.92372227
H        6.18378878       0.21523981      -5.86066437
H        4.86593151       3.26161051      -6.35333490
H        2.88103867       0.74574262      -5.35098648
H        5.82661152       5.93710375      -3.42371130
12
Properties=species:S:1:pos:R:3 energy=-1269.97998046875 pbc="F F F"
C        1.88972616       0.00000000       0.00000000
C        4.61849070       0.00000000       0.00000000
C        6.86756706       0.00000000       0.00000000
C        9.59633160       0.00000000       0.00000000
C       10.62721539       2.64826226      -0.11132377
O       12.42468452       3.37758303       1.16133118
H        1.14517403       1.92918360       0.02199641
H        1.14502287      -0.98356467       1.65968978
H        1.14504170      -0.94546777      -1.68170512
H       10.32242107      -1.01567113      -1.64973092
H       10.33379745      -0.92524773       1.69701183
H        9.79108715       3.89223123      -1.56384289
17
Properties=species:S:1:pos:R:3 energy=-1787.47998046875 pbc="F F F"
C        1.94422579       0.06494989       0.22654037
C        4.81432295      -0.04112044      -0.08934625
C        5.62465668      -2.35990882      -1.65702522
C        6.49961853      -1.25751829      -4.10964394
C        6.61166048       1.26449132      -4.02711964
C        5.80117559       2.18276596      -1.59498560
C        5.95239162       4.58589268      -0.82698196
H        1.37481356       1.73486304       1.31101644
H        1.26269615      -1.60717428       1.23977375
H        0.97398376       0.13755317      -1.60292244
H        5.70406294      -0.11464968       1.78203058
H        4.08090115      -3.70503497      -1.94757068
H        7.19288349      -3.35520864      -0.74375844
H        7.03841734      -2.38678074      -5.72503853
H        7.24827147       2.46586585      -5.55139160
H        5.32965136       5.13542509       1.04792869
H        6.71107912       6.05547619      -2.03823972
17
Properties=species:S:1:pos:R:3 energy=-1746.4599609375 pbc="F F F"
C        2.04553413      -0.08259993       0.99864465
C        4.76210976       0.00000000       0.00000000
C        4.97281408      -1.15229833      -2.66969180
C        4.37186241      -3.93299246      -2.75325537
C        2.51501751      -4.94316435      -4.14405584
C        5.67299557       2.57223845       0.00000000
C        6.42374611       4.69232225       0.00000000
H        1.92113340       0.78880948       2.87389541
H        1.36351299      -2.02729821       1.17472935
H        0.75018346       0.94221747      -0.25122020
H        5.94135571      -1.11567545       1.29283726
H        6.91188097      -0.91638488      -3.37195182
H        3.75675654      -0.10627820      -3.98718977
H        5.55475569      -5.17356014      -1.61669850
H        1.29361200      -3.78704906      -5.31914425
H        2.17968583      -6.96743917      -4.13519335
H        7.09501457       6.59119463       0.00162516
15
Properties=species:S:1:pos:R:3 energy=-1451.239990234375 pbc="F F F"
C        2.19359398      -1.23571086      -0.72306591
C        4.94822884      -0.65715224      -0.29659250
O        6.53136587      -2.36572933      -0.19095683
C        5.65787792       2.13068509      -0.20584787
N        8.21932602       2.39641833       0.81622940
N        9.26056480       4.72469330       0.63097954
C       11.56376362       4.82768345       1.43747687
H        1.66479206      -0.67240238      -2.63779306
H        1.04263747      -0.22179715       0.65960890
H        1.86249518      -3.26212072      -0.49240595
H        4.31849670       3.13261795       1.00969958
H        5.54702663       2.87402773      -2.13327408
H        9.32846260       0.98297882       0.07985982
H       12.59082985       6.63590574       1.37271595
H       12.59394741       3.18910193       2.21413541
20
Properties=species:S:1:pos:R:3 energy=-1910.68994140625 pbc="F F F"
C        2.11571836       0.74886066       1.79370916
N        4.86432505       0.81796795       1.69041669
C        5.73800230       2.78834772      -0.03036790
C        8.56713009       2.75421906       0.01213204
C       10.04521751       1.20366108      -1.87492955
C       10.03988838       4.04524231      -2.06240940
C       12.35467052       5.52049494      -1.42672431
H        1.51533353      -0.69530582       3.14503336
H        1.30066073       0.27898026      -0.04746992
H        1.34387875       2.55757427       2.43438292
H        5.52495432      -0.88361704       1.07531083
H        5.08366585       4.64868832       0.60293603
H        5.01954746       2.46422172      -1.94728720
H        9.30128860       2.90853429       1.92158687
H        9.02021122       0.15287885      -3.30414844
H       11.74045277       0.26344672      -1.21104991
H        9.00172901       4.89903927      -3.60928249
H       13.45091915       4.63449669       0.08996986
H       11.83575153       7.42609453      -0.81428301
H       13.57437515       5.68529797      -3.08807707
19
Properties=species:S:1:pos:R:3 energy=-1834.449951171875 pbc="F F F"
C        3.23978424      -0.42662457       2.32874727
C        4.09180498       0.30526635      -0.31522521
C        6.19539165       2.19705224      -0.23680158
C        6.39192295       4.21966410      -2.22666430
C        5.66549349       4.91470528       0.43053630
O        7.60886908       6.10587502       1.91788304
C        7.10382080       8.69398785       2.41284013
H        1.77560556      -1.88475621       2.23826718
H        2.45915723       1.20651460       3.33434606
H        4.82046461      -1.15912020       3.44725728
H        2.47068453       1.04093671      -1.37254584
H        4.75071478      -1.38350630      -1.31430447
H        7.94134712       1.37719464       0.46031839
H        4.94388247       4.33249950      -3.66950798
H        8.26313019       4.74287224      -2.87731600
H        3.70909786       5.42336273       0.78869611
H        8.71859169       9.49542046       3.42299318
H        5.42090607       8.87341690       3.60075974
H        6.84090328       9.73120117       0.64396197
15
Properties=species:S:1:pos:R:3 energy=-1444.9000244140625 pbc="F F F"
C        1.99256504      -0.13093913       0.26588446
C        4.83953190       0.01511781       0.05527449
N        5.81791878       2.25449991       0.10595694
C        8.58379745       2.34779572      -0.19250640
C        9.84806252      -0.18351130       0.32716829
O        8.57245922      -2.07223582      -1.12960267
N        6.12571716      -2.25410318      -0.13258319
H        1.34489918      -2.09194565       0.31261739
H        1.14179146       0.82178521      -1.35948789
H        1.38261807       0.82010335       1.99700594
H        8.98345566       2.94525146      -2.13529611
H        9.35637379       3.78718114       1.07706833
H       11.82938290      -0.13555005      -0.26348451
H        9.79327869      -0.68311709       2.33864951
H        5.14151001      -3.75346851      -0.82042462
15
Properties=species:S:1:pos:R:3 energy=-1509.489990234375 pbc="F F F"
C        1.90229285       0.15070567      -0.03805909
O        4.57924128       0.08501878      -0.26934266
C        5.75640821       2.38077140      -0.26142472
C        8.23126888       2.71689701      -0.49518383
O        9.06928730       5.17919111      -0.38059086
C        6.76452017       6.64106464      -0.34357110
C        4.52644205       4.86479759       0.10238536
H        1.21343100      -1.79837680      -0.04920847
H        1.04745626       1.13965607      -1.64158618
H        1.33097196       1.02048993       1.75003755
H        9.68284321       1.30833304      -0.71219999
H        6.59230947       7.61143875      -2.16657090
H        6.90373659       8.07874966       1.13874900
H        3.00615740       5.25062275      -1.24275947
H        3.79390860       5.06877470       2.02633452
15
Properties=species:S:1:pos:R:3 energy=-1614.030029296875 pbc="F F F"
C        1.78087795      -0.06971200       0.01723430
C        4.60184240      -0.00449755       0.03204976
C        5.93188810       2.15048933       0.00000000
C        8.58884335       2.15048933       0.00000000
C       10.83791924       2.15048933       0.00000000
C       13.49487400       2.15048933       0.00000000
C       14.82363510       4.29969406       0.00005669
H        1.12176037      -2.02612662      -0.07814018
H        1.02358902       0.93288219      -1.62533450
H        1.01667261       0.77293581       1.74739194
H        5.57314253      -1.81457174       0.06387274
H        4.97290897       3.96530676      -0.03129387
H       14.46543789       0.34243727      -0.00005669
H       13.90789318       6.13597870       0.00013228
H       16.87347794       4.26101112       0.00005669
15
Properties=species:S:1:pos:R:3 energy=-1587.6099853515625 pbc="F F F"
C        1.87147141       0.00750221       0.32548642
C        4.63232327       0.02707978      -0.12595025
C        6.19739485      -1.91913033      -0.47131661
O        8.68457699      -1.22301185      -0.87738097
C        8.76105404       1.40433109      -0.81093818
C       10.87932301       2.71725607      -1.20643890
C        6.15009499       2.41535354      -0.28258964
H        1.12051308      -1.92024517       0.33865783
H        0.89166725       1.06176150      -1.15978158
H        1.43029594       0.87851477       2.14818406
H        5.82882261      -3.91751575      -0.49405000
H       12.64714336       1.75215411      -1.58844709
H       10.88599396       4.76500130      -1.16424143
H        5.48487329       3.62037516      -1.82549429
H        6.09485817       3.44391251       1.51079822
17
Properties=species:S:1:pos:R:3 energy=-1672.0999755859375 pbc="F F F"
C        5.12786627      -1.17028844       3.50651908
C        5.47653961      -0.59668100       0.70388520
C        6.17658854       2.15362644       0.15403157
O        4.32830429       3.79596853       1.22055519
C        8.81729221       2.82531071       1.12438703
C       11.04312515       1.90182042      -0.38306639
O        9.08945084       4.06994104       3.07781577
H        4.60475254      -3.15440655       3.76127315
H        3.62443805      -0.01466427       4.33066654
H        6.86817169      -0.83112043       4.56710911
H        3.68626976      -1.02829444      -0.24961393
H        6.90742159      -1.87460828      -0.07572132
H        6.15529156       2.48293018      -1.89120007
H        5.01100588       4.34304428       2.85135102
H       11.17168331      -0.15429614      -0.26705611
H       12.78106785       2.72806525       0.37299415
H       10.84137726       2.49627161      -2.35165071
11
Properties=species:S:1:pos:R:3 energy=-1214.6300048828125 pbc="F F F"
C        1.88972616       0.00000000       0.00000000
C        4.13880253       0.00000000       0.00000000
C        6.79575777       0.00000000       0.00000000
C        8.26471710      -2.01231265       0.06224758
O       10.79606247      -1.45452225      -0.06905060
C       10.68948174       1.26093864      -0.31074658
O        8.14339638       2.23222017      -0.18885922
H       -0.12281330       0.01037460      -0.00020787
H        7.77675200      -3.98263574       0.17428944
H       11.51614189       1.79875469      -2.13287711
H       11.80602646       2.11348867       1.21063411
9
Properties=species:S:1:pos:R:3 energy=-1026.6700439453125 pbc="F F F"
C        1.77059782      -0.20482741       0.09480756
C        4.27499533       0.09288004      -0.10746872
C        5.62178421       2.55936956       0.09322019
O        7.93458223       2.58399272      -0.12715967
C        4.27114010       4.91075563       0.53932786
N        3.12728882       6.75425911       0.89731753
H        0.93943954      -2.07590199      -0.07585361
H        0.47001269       1.34822512       0.42896783
H        5.50002909      -1.51935875      -0.44225261
12
Properties=species:S:1:pos:R:3 energy=-1239.3199462890625 pbc="F F F"
N        1.74654162       0.18029878      -0.06665064
C        4.28193045       0.03318359      -0.02509556
C        5.96960688       2.01390004      -0.00217319
C        8.52995968       1.17522073       0.02511446
C        8.71088123      -1.41565049       0.02723095
O       10.79840565      -2.80735826       0.04675182
S        5.81058645      -2.81359434      -0.00022677
H        0.80557138       1.84531760       0.03745437
H        0.66387969      -1.39752805       0.02947973
H        5.40503263       3.97993326      -0.01188638
H       10.16234207       2.40728426       0.03945748
H       10.19968319      -4.54620886       0.03609377
17
Properties=species:S:1:pos:R:3 energy=-1715.6500244140625 pbc="F F F"
C        1.55326045      -2.33893299       0.97043109
C        3.14628053      -0.14439398      -0.00893840
O        1.74009764       1.92814422      -0.98029542
C       -0.16546442       2.85641551       0.67274249
C       -2.60489297       1.47646189       0.25900587
C       -2.87257266      -0.96192729      -0.39245832
C       -0.79485661      -2.88791728      -0.61841285
H        2.74650908      -4.03061581       1.06157255
H        0.97502309      -1.94809973       2.92437005
H        4.34092760      -0.81554914      -1.55974221
H        4.42137337       0.53545392       1.47366512
H        0.42749384       2.80949354       2.65684152
H       -0.45646334       4.84115696       0.16468963
H       -4.29924011       2.62677598       0.43269059
H       -4.77392054      -1.66622818      -0.75071263
H       -1.56954980      -4.70025921       0.02913958
H       -0.29407918      -3.13658643      -2.61267877
17
Properties=species:S:1:pos:R:3 energy=-1634.77001953125 pbc="F F F"
C        1.87268078      -0.03036790       0.13307451
C        4.76210976       0.00000000       0.00000000
N        5.76030111      -1.32237363       2.22965002
C        5.67713404      -1.41291046      -2.43636727
N        8.43847752      -1.84112239      -2.50371695
C        5.67299557       2.57223845       0.00000000
C        6.42374611       4.69232225       0.00000000
H        1.03611791       0.92292333      -1.50836051
H        1.17155457       0.94244421       1.82662821
H        1.13340104      -1.96722376       0.17162493
H        5.83401918      -0.10726085       3.71762037
H        7.58800650      -1.79860353       1.80627584
H        5.13111687      -0.34789857      -4.12884378
H        4.75882196      -3.26712871      -2.55160260
H        9.32439995      -0.12855807      -2.50400043
H        8.89114285      -2.68220162      -4.17521763
H        7.09248257       6.59208298       0.01039349
12
Properties=species:S:1:pos:R:3 energy=-1119.239990234375 pbc="F F F"
C        1.89467716       0.01523119      -0.00903289
C        4.74032116       0.05916733      -0.00383614
C        6.09799528      -2.44787574      -0.01162182
N        5.87568760       2.23730350       0.00143619
O        8.50395679       1.94944143       0.00094486
H        1.13154912       1.93547642       0.00702978
H        1.22399449      -0.99265426       1.66537786
H        1.23043847      -0.96221077      -1.70392823
H        4.73788357      -4.00319576       0.00621720
H        7.29594898      -2.59693718       1.66545343
H        7.26038456      -2.60326791      -1.71294224
H        9.09041405       3.69683337       0.00544241
14
Properties=species:S:1:pos:R:3 energy=-1403.4599609375 pbc="F F F"
C        1.17588210       1.91342330       3.42463732
C        1.94600213       0.51340079       1.46090949
C        4.61522150       0.35819760       0.52010930
O        5.21653223      -2.25689983       0.22922377
C        7.53796625      -2.85794616      -0.71720773
C        9.44957542      -1.33541274      -1.37092078
H       -0.79376054       1.91363120       3.99841475
H        2.47688293       3.08068824       4.50008059
H        0.56825954      -0.62419546       0.44661787
H        5.92637014       1.24612319       1.85695827
H        4.72571373       1.31560838      -1.31523049
H        7.67771149      -4.89709282      -0.89574909
H        9.37111378       0.70171201      -1.20109105
H       11.18591213      -2.14270377      -2.10298181
21
Properties=species:S:1:pos:R:3 energy=-2045.719970703125 pbc="F F F"
C        3.54257512      -1.06410480      -2.54939175
C        4.48182583      -0.08239206      -0.01509891
C        6.05969048       2.33859277      -0.27748740
C        8.53273678       1.92154908      -1.72016096
C        4.54927015       4.72954988      -1.10673702
C        5.94324541       6.23093748       0.95975411
C        6.46789026       3.70480800       2.30584383
H        2.31516027      -2.70417929      -2.26368403
H        5.10874224      -1.65840471      -3.75962901
H        2.46167064       0.37773734      -3.56247401
H        5.59733105      -1.55730438       0.92205405
H        2.83311510       0.26718837       1.19402349
H        9.72668457       3.61306190      -1.71324456
H        8.17525768       1.44223893      -3.70031047
H        9.63025188       0.38461596      -0.87165505
H        2.50560689       4.61017609      -0.78041911
H        4.86517572       5.38524723      -3.04128742
H        7.64911985       7.19377184       0.28865567
H        4.78975677       7.58192158       2.01382446
H        8.34487915       3.52719283       3.15374494
H        5.05611324       3.25630045       3.75643539
16
Properties=species:S:1:pos:R:3 energy=-1562.489990234375 pbc="F F F"
N        5.31976795      -1.97330868       2.07263279
C        4.63396740      -0.40551633      -0.10232867
C        5.57580709       2.30372739       0.24436049
C        8.44853115       2.56590796       0.04013778
C        9.91202927       2.20362854       2.46286106
O        9.46422100       0.02227987       3.69033289
O       11.50385857       3.70826626       3.19898510
H        4.75878382      -3.79268026       1.70018661
H        4.18648052      -1.45336950       3.56598878
H        2.57639599      -0.41494608      -0.32204711
H        5.44711685      -1.23043847      -1.81740630
H        4.89724398       3.08439207       2.03984594
H        4.72263336       3.44453621      -1.26212919
H        8.84081936       4.51262808      -0.56740916
H        9.23888969       1.32339406      -1.41476238
H        8.08617592      -0.99433607       2.92661881
18
Properties=species:S:1:pos:R:3 energy=-1756.72998046875 pbc="F F F"
C        1.92205930      -1.93233943       1.03848004
C        4.44720602      -1.39068723      -0.26790649
C        5.82071543      -3.88036370      -0.78928190
N        3.93304920       0.02475541      -2.59599233
C        6.21118975       1.04843891      -3.76983356
C        5.49517250       2.64142132      -5.92958260
C        4.90221405       3.93650746      -7.69762945
H        0.93106806      -0.17436503       1.50267243
H        2.22048497      -2.96275043       2.80928588
H        0.67591727      -3.07396078      -0.15864252
H        5.58810902      -0.23859683       1.02385366
H        4.80511999      -5.02695513      -2.18278480
H        5.98978949      -4.99932718       0.94474971
H        7.73820162      -3.55873227      -1.49505687
H        2.75386000       1.49702215      -2.20264578
H        7.43960619      -0.47190240      -4.44537306
H        7.28449726       2.18784928      -2.41042137
H        4.36296177       5.07081556      -9.27059937
17
Properties=species:S:1:pos:R:3 energy=-1727.1700439453125 pbc="F F F"
C        5.74603367      -1.56131065      -1.81738746
C        4.86381483       0.13793111       0.33276188
C        5.60360479       2.86316180      -0.06534673
C        3.89088941       4.64978456      -0.63364404
C        8.34966087       3.49775076       0.30229950
C        9.30722237       6.06981945      -0.45336419
O        9.79146481       1.92103887       1.22624326
H        5.06000614      -3.49092889      -1.52470660
H        7.80976582      -1.63723981      -1.92914581
H        5.02661467      -0.89688289      -3.64038730
H        5.62531805      -0.55053389       2.13302827
H        2.80218029      -0.02734434       0.49113983
H        1.90709269       4.16686487      -0.85976869
H        4.36190367       6.62910271      -0.87577468
H        8.71615410       6.52405262      -2.38139510
H       11.37662411       6.06252480      -0.42174909
H        8.63226891       7.49909449       0.87700301
12
Properties=species:S:1:pos:R:3 energy=-1242.43994140625 pbc="F F F"
O        1.59674299       0.06765220       0.06451525
C        3.92248559       0.00823921       0.09873819
C        5.51726341       2.35592151      -0.10293338
O        7.78160858       1.88553095       1.27832413
N        9.30047607       0.01360603       0.12098027
C        8.08989906      -2.07788610      -0.28763521
C        5.34061193      -2.44226313       0.24248965
H        4.53628778       3.94206309       0.78249782
H        5.93617773       2.78876328      -2.08032393
H        9.14769173      -3.71486139      -1.02391028
H        4.58269930      -3.73621535      -1.18117332
H        5.12682676      -3.27691746       2.11985707
15
Properties=species:S:1:pos:R:3 energy=-1464.530029296875 pbc="F F F"
C        1.91332877      -0.04427628      -0.02458534
N        4.65921450       0.02258223       0.08959191
C        5.59491205       2.61855578       0.00000000
C        8.32367706       2.61855578       0.00000000
C       10.57275295       2.61855578       0.00000000
C       13.30151749       2.61855578       0.00000000
H        1.26785505      -2.00734258       0.05877048
H        1.20373666       0.78287572      -1.78346682
H        1.07226837       0.95465183       1.58030236
H        5.39085960      -0.94548666      -1.40629637
H        4.89737654       3.67512059       1.63931847
H        4.90094805       3.57417130      -1.70251095
H       14.04623985       4.54766369      -0.02227987
H       14.04610729       1.63465095      -1.65953863
H       14.04612637       1.67322016       1.68179953
13
Properties=species:S:1:pos:R:3 energy=-1386.56005859375 pbc="F F F"
C        1.77946067       0.09329578      -0.06047124
C        4.28837442       0.02526564       0.19443393
O        5.58461332       2.17331743       0.91326684
C        8.11973763       2.21003461      -0.03507332
O        9.62673759       0.01024232       0.46232149
C        8.27265453      -2.16638207       0.11334577
C        5.75969648      -2.24665761      -0.09571463
H        0.75543690       1.84401369       0.24385026
H        0.68752015      -1.56595933      -0.56310058
H        9.08017159       3.81832385       0.84327137
H        8.08798981       2.56607795      -2.08039951
H        9.48542404      -3.81016040       0.06553570
H        4.79926205      -4.03390408      -0.38779071
16
Properties=species:S:1:pos:R:3 energy=-1618.5400390625 pbc="F F F"
C        1.26570082      -1.50594163       2.03740811
C        3.71319842      -1.59409738       0.59429997
C        4.58235931      -3.75008583      -0.42756945
C        5.17038536       0.85859704       0.42212704
C        3.73906875       2.86240602      -1.06614566
N        3.33291006       2.32143402      -3.55716372
O        3.02257919       4.86757565      -0.15070567
H        1.59067702      -0.82017893       3.96188641
H        0.38191366      -3.37232971       2.17656755
H       -0.08405502      -0.24471954       1.10664248
H        3.54055309      -5.51195335      -0.26367348
H        6.37204313      -3.82644987      -1.42978573
H        7.01477671       0.59014255      -0.48424232
H        5.53874969       1.58619833       2.32636619
H        3.46362233       0.52585411      -4.19774294
H        2.24527812       3.55230713      -4.53453016
19
Properties=species:S:1:pos:R:3 energy=-1777.7900390625 pbc="F F F"
C        4.50739384      -1.21571755      -2.70083427
N        6.29044485      -0.26854900      -0.82346708
N        7.21790361       2.07106423      -1.28467357
C        8.89754868       2.79033184       0.34421360
C       10.11676216       5.36083174       0.11960077
C        9.45885372       6.91972351       2.44836688
C       12.96344566       5.03799105      -0.15503313
H        3.92705870      -3.13743663      -2.20772934
H        5.37867069      -1.27482820      -4.57559395
H        2.81884789      -0.02445306      -2.78375554
H        5.46043921      -0.37157685       0.91920060
H        9.50307369       1.58334482       1.93965268
H        9.37262630       6.30930424      -1.56526017
H       10.16895676       6.03234577       4.17971516
H        7.40668726       7.11077499       2.64790320
H       10.26996231       8.81882286       2.31754112
H       13.78097916       4.08999109       1.49448991
H       13.89559078       6.87225342      -0.37178472
H       13.41433430       3.88816810      -1.81634808
15
Properties=species:S:1:pos:R:3 energy=-1509.52001953125 pbc="F F F"
C        1.99849880       2.25123072      -0.18347351
N       -0.46245378       2.43341923       1.08209503
N       -2.51894832       1.61361825      -0.20080230
C       -2.71591449      -0.83180076      -0.41872552
C       -0.97577900      -2.83086634       0.65847510
C        1.76708293      -2.55842471       0.00640617
C        3.01711774      -0.38935918      -0.40071642
H        3.35732532       3.35604024       0.92445403
H        1.90628016       3.11693311      -2.06205034
H       -0.73236334       4.29513979       1.52217436
H       -4.39877224      -1.54158187      -1.42455113
H       -1.63266671      -4.63067961      -0.13647602
H       -1.24353433      -2.94880414       2.70827985
H        2.81956577      -4.32010269      -0.14318454
H        5.00873804      -0.50168449      -0.89847028
21
Properties=species:S:1:pos:R:3 energy=-2046.719970703125 pbc="F F F"
C        1.85988736       0.88236982      -2.37546134
C        4.54456472       0.59724796      -1.39172661
C        5.73907948       3.16107726      -0.80160290
C        8.45629787       2.85703921       0.13991532
C        9.65504551       5.42239904       0.73920417
C       12.34794331       5.37969112       1.66154170
C       13.82997990       3.35551119       2.00146556
H        1.04840112      -0.97445619      -2.78617454
H        1.82500303       1.99768615      -4.11593676
H        0.65503579       1.81632912      -0.97885925
H        5.68318129      -0.40171799      -2.80699921
H        4.52264357      -0.57806724       0.31579214
H        4.60822964       4.13846254       0.63328505
H        5.72176933       4.34236383      -2.50367928
H        9.57308769       1.88035309      -1.30833304
H        8.46389484       1.66554797       1.83654928
H        8.51100540       6.38219118       2.17976141
H        9.59213638       6.61266184      -0.95865804
H       13.14365005       7.23037577       2.08928132
H       13.19365215       1.44622636       1.62249994
H       15.75396633       3.57766724       2.68051982
15
Properties=species:S:1:pos:R:3 energy=-1427.280029296875 pbc="F F F"
O        2.17613292       1.07725728       1.32220364
N        4.34829760       2.58879256       1.29835522
C        5.88071442       1.75780439      -0.41600430
N        8.20322514       2.72774410      -1.04968619
C        9.65651989       3.90608287       0.91300231
C       12.00200939       2.70587993      -0.27525750
C       10.16687775       0.96910822      -1.67796338
H        1.14577878       1.89788973       2.61097789
H        5.36325073       0.11820237      -1.60583258
H        9.23129368       3.21555805       2.81724143
H        9.57012081       5.96794415       0.85135943
H       13.07450485       3.97840261      -1.50664091
H       13.29216385       1.77027655       1.03868794
H       10.46929073       0.79213542      -3.71232915
H        9.92614555      -0.89639157      -0.81333810
16
Properties=species:S:1:pos:R:3 energy=-1602.3499755859375 pbc="F F F"
C        1.74765646       0.17905155       0.34757733
C        4.58203793      -0.09286115       0.08165506
C        6.21139765       1.97240162       1.33161438
C        7.69532394      -0.12912498       2.66738629
N        5.64659595      -1.80754197       1.94983828
C        5.62618732      -4.38310623       2.00902462
O        7.08174849      -5.70924044       3.22332478
H        0.78077817      -1.53971112      -0.27996293
H        1.06113791       1.74385822      -0.81921518
H        1.18189144       0.55253702       2.30395412
H        5.18098640      -0.57901210      -1.84184051
H        5.19124794       3.22472310       2.62889242
H        7.31777525       3.13023686       0.02424519
H        9.49891663      -0.63245356       1.79202724
H        7.91213226       0.10053343       4.70717573
H        4.12425184      -5.19234371       0.81433970
17
Properties=species:S:1:pos:R:3 energy=-1701.449951171875 pbc="F F F"
C        1.90869904       0.03023562      -0.15546776
C        4.68907213       0.24160148       0.17667049
O        6.14072180      -1.22195363      -1.56603491
C        6.32190847       1.48570263      -1.81039548
C        8.55828667       2.92554164      -0.97513646
C        8.04137039       5.51856709       0.07441741
C       10.93471146       2.04742384      -1.15139127
H        0.96672720       1.66889274       0.68487453
H        1.20447361      -1.67127383       0.78690088
H        1.36725461      -0.06935295      -2.15098071
H        5.27294064       0.24836670       2.13472915
H        5.39375067       2.29613066      -3.45113134
H        7.05593491       6.67645931      -1.32949793
H        9.77991867       6.51074886       0.60038489
H        6.85458469       5.38817596       1.76434278
H       11.30577755       0.17871140      -1.91718388
H       12.55142879       3.14726329      -0.53560507
13
Properties=species:S:1:pos:R:3 energy=-1249.8699951171875 pbc="F F F"
C        1.76721513      -0.01812247       0.08191963
C        4.62589836       0.04079919       0.00719986
C        5.94152594       1.91684365       1.77891254
O        7.57269955      -0.05510442       2.75629783
C        6.01715279      -1.96752620       1.56822705
H        1.04605794      -1.64236093      -0.97753644
H        0.98360246       1.69464970      -0.77238774
H        1.05236959      -0.15068676       2.01851106
H        5.33658648       0.16013539      -1.93747950
H        4.78070498       2.73103213       3.28513765
H        7.01719570       3.40999198       0.83892500
H        7.14479017      -3.30751204       0.47263941
H        4.88966656      -2.98382092       2.97306824
19
Properties=species:S:1:pos:R:3 energy=-1790.3800048828125 pbc="F F F"
N        6.11558819       1.87320995       4.78418207
C        5.30648327       3.42335224       2.63873792
C        6.30320024       2.42162728       0.10168616
C        9.16352749       2.46563911      -0.17068006
C       10.47129345       0.30982059      -0.49622318
C       10.47161484       4.99023771      -0.07192298
N        9.56902504       6.64563751      -2.07435226
H        5.62836027       2.75597668       6.42465305
H        8.03863049       1.74417937       4.77930641
H        5.90879583       5.38173199       2.93945003
H        3.23653388       3.42994738       2.59073901
H        5.46590042       3.54130888      -1.42664874
H        5.58788252       0.49284059      -0.17204067
H        9.52824497      -1.51079822      -0.56381869
H       12.51342678       0.30354670      -0.70307261
H       12.52330971       4.77159643      -0.26078221
H       10.14278412       5.88490963       1.76475859
H        9.95424557       5.81321335      -3.76947451
H       10.59161282       8.27688694      -2.04430580
17
Properties=species:S:1:pos:R:3 energy=-1662.3599853515625 pbc="F F F"
C        2.72568417       0.15180171       1.98111331
C        5.00837898       1.22488272       0.58135533
C        4.24749947       2.18376756      -2.05186462
C        6.50313330       2.72113013      -3.77425551
O        8.25517368       4.42666435      -2.68095446
C        6.12152195       3.29778004       2.21795273
O        5.83779860       5.56471443       1.80652153
H        3.26076031      -0.52400213       3.86433887
H        1.89783311      -1.43604064       0.94416386
H        1.25817966       1.59232104       2.23497915
H        6.44627142      -0.25382802       0.38864109
H        3.11615849       3.91315031      -1.86504626
H        3.04786372       0.77930415      -2.99111533
H        5.85166931       3.52124000      -5.56747341
H        7.51583767       0.96844685      -4.19863129
H        7.30539799       5.74990749      -1.80024755
H        7.18865061       2.64676929       3.88792253
20
Properties=species:S:1:pos:R:3 energy=-1914.6199951171875 pbc="F F F"
C        5.86368799      -1.87222731      -1.04983735
N        5.03651714      -0.03238991       0.81906402
C        6.32778597       2.40616941       0.58182776
C        4.99114466       4.31330013       2.30480456
C        9.14402580       2.28146625       1.15554869
C        9.96822929       1.39911544       3.73243594
C       10.86915684       2.95277262      -0.58819616
H        4.71422434      -3.58318520      -0.87509435
H        7.83924532      -2.42262888      -0.78308362
H        5.61212778      -1.15728724      -2.97510934
H        5.27526522      -0.73461217       2.59200501
H        6.04833317       3.09316039      -1.35774934
H        4.99435711       3.71452117       4.28682470
H        3.01522803       4.55484486       1.73187733
H        5.90101004       6.17029619       2.19877195
H        9.28944016      -0.51706684       4.10943604
H        9.24945354       2.65978956       5.20509958
H       12.03052616       1.36169887       3.91127968
H       10.31408787       3.59418344      -2.45696521
H       12.88231945       2.87442470      -0.19981964
15
Properties=species:S:1:pos:R:3 energy=-1393.449951171875 pbc="F F F"
C        1.92623568      -0.18645927       0.26117906
O        4.56104279       0.14771989       0.65794593
C        5.40369081       2.68095446       0.24352901
C        4.71063375       4.37645435       2.46890831
C        8.26486874       2.57545114      -0.07417175
H        1.49437654      -2.19761920       0.46254826
H        1.39240694       0.40810525      -1.64621603
H        0.82692528       0.85151058       1.66876042
H        4.57483816       3.42174602      -1.50456214
H        5.37118769       3.56188798       4.25524759
H        2.65965724       4.59201574       2.63310671
H        5.52901745       6.26521683       2.25616288
H        9.17295742       1.78359914       1.61089706
H        9.05494404       4.45317745      -0.43297404
H        8.76838589       1.33773708      -1.65619373
13
Properties=species:S:1:pos:R:3 energy=-1310.72998046875 pbc="F F F"
N        2.45997000       0.57368308      -1.28595865
C        4.44338846       0.42734265       0.11986533
N        6.08042049       2.31990337       0.84147614
C        6.66527176       4.25677824      -1.07030308
C        4.97203970       4.87231874       1.09649467
C        5.91667604       6.38993883       3.22810578
O        5.99309635       8.70033646       3.10926080
H        1.66106927      -1.18585980      -1.45826387
H        5.02083206      -1.40622079       0.93000984
H        5.83670282       3.95515895      -2.91514826
H        8.61354160       4.86861467      -1.02200174
H        2.96358180       5.01459599       0.72351944
H        6.52123690       5.35234690       4.93082476
15
Properties=species:S:1:pos:R:3 energy=-1619.030029296875 pbc="F F F"
C        1.88972616       0.00000000       0.00000000
C        4.61849070       0.00000000       0.00000000
C        6.86756706       0.00000000       0.00000000
C        9.52452183       0.00000000       0.00000000
C       10.84757614       1.98963594       0.83996439
C       13.57617092       2.05471802       0.86745989
C       14.89712715       4.04083920       1.70595026
H        1.14517403       1.92918360       0.02248774
H        1.14506066      -0.98396152       1.65948188
H        1.14502287      -0.94507092      -1.68191290
H       10.47395802      -1.67573357      -0.70745677
H        9.85467625       3.64942026       1.54069376
H       14.58825111       0.40489271       0.17094463
H       13.98833847       5.73511076       2.42123055
H       16.94838715       4.00816584       1.69215524
18
Properties=species:S:1:pos:R:3 energy=-1658.0999755859375 pbc="F F F"
C        2.95955682       0.17580122       1.49879849
O        5.31226587       0.41710034       0.22054994
C        6.34384823       2.91310740       0.51939124
C        8.89186096       2.97605419      -0.85521448
O        8.49838161       2.45207095      -3.49550200
C       10.26612663       5.51868057      -0.58398205
N        8.83392143       7.61519957      -1.69988430
H        2.24754572      -1.73900163       1.19217157
H        1.58294797       1.52224994       0.74606389
H        3.20986986       0.46997488       3.53006506
H        6.59323549       3.32631493       2.53242207
H        5.01739311       4.26371336      -0.31936371
H       10.10536766       1.45930326      -0.13488865
H        7.32764006       1.02249300      -3.51404023
H       12.08557320       5.40104532      -1.56626177
H       10.63872337       5.92963934       1.40869629
H        8.32662487       7.05606747      -3.48425817
H       10.01072979       9.12053680      -1.94146681
13
Properties=species:S:1:pos:R:3 energy=-1378.199951171875 pbc="F F F"
C        0.72692096       2.70990515       0.97241527
O        2.51781440       0.63007247       0.61765701
C        1.21414900      -0.96158713      -1.17077982
O       -0.31460160       0.74906856      -2.64285755
C       -1.60509562       1.80206180      -0.47793064
C       -2.60802984      -0.58178997       0.69487119
C       -0.80685639      -2.31531143       0.27535200
H        1.57030571       4.38915348       0.10888602
H        0.40791628       3.02380753       2.98979235
H        2.46488309      -2.12475133      -2.32734895
H       -3.00893545       3.21589804      -1.00471067
H       -4.32575321      -0.79742664       1.76434278
H       -0.74298364      -4.24162245       0.92519104
13
Properties=species:S:1:pos:R:3 energy=-1324.5400390625 pbc="F F F"
O        3.57985950      -1.48171532      -1.13168144
C        3.83400869       0.36350772       0.25564215
C        5.88326550       2.32574272      -0.06895611
C        6.60427141       2.78116655      -2.80367327
C        6.58176517       5.59954214      -2.84108996
N        5.69622040       6.68603992      -0.84155172
N        4.90177965       4.80404282       0.69785696
H        2.66680050       0.54630095       1.97540629
H        7.51906919       1.81026316       1.08853900
H        5.25360870       2.07731915      -4.20016193
H        8.50193501       2.09831405      -3.24968648
H        7.29086590       6.64225531      -4.49197340
H        5.20761299       5.20944595       2.56088138
19
Properties=species:S:1:pos:R:3 energy=-1846.97998046875 pbc="F F F"
C        1.75525320      -0.41228154       0.21359575
C        4.63920212      -0.08241095      -0.03662289
C        5.90000868      -1.29251599       2.29153872
C        5.48991919      -1.47249353      -2.47162962
O        8.16773605      -1.50991011      -2.76960158
C        5.46550369       2.68399692      -0.14520656
C        3.99223542       4.74326944      -0.22221290
H        0.75521016       0.36534074      -1.42621410
H        1.02511978       0.52215022       1.91317761
H        1.24551845      -2.41635489       0.34857887
H        5.26606226      -0.38435140       4.04407072
H        7.96547890      -1.13360894       2.22520924
H        5.43521118      -3.30700183       2.42809010
H        4.66435432      -0.60616744      -4.16469193
H        4.86672497      -3.44619918      -2.42587924
H        8.67805672       0.19067337      -3.24462199
H        7.50106001       2.99731350      -0.12209520
H        1.94530296       4.65012455      -0.22621912
H        4.83032894       6.61753750      -0.27064657
20
Properties=species:S:1:pos:R:3 energy=-1921.5899658203125 pbc="F F F"
C        1.01517975      -0.77505225       0.43425906
C        3.74929214      -0.05535008       0.43656453
C        4.78433323       2.23945785       0.04028896
C        3.31425834       4.61714888      -0.49539170
C        7.64301634       2.55245304       0.03637723
C        8.62520123       4.15745401       2.24321842
N       11.38541126       4.31524611       2.20710564
H        0.73240113      -2.39159966      -0.82564026
H       -0.24436049       0.72684538      -0.20359910
H        0.43866214      -1.33853078       2.33806372
H        5.00962639      -1.64489317       0.79659516
H        1.28199017       4.31033325      -0.66962445
H        3.95589590       5.46540928      -2.27046824
H        3.58947802       5.99307728       1.02389145
H        8.21446896       3.40568328      -1.76649714
H        8.56036472       0.69156420       0.09701854
H        8.01485729       3.34687495       4.04826593
H        7.86812019       6.07940006       2.13202691
H       12.13170147       2.55264211       2.42631388
H       11.97959805       5.34140539       3.72536826
13
Properties=species:S:1:pos:R:3 energy=-1421.1300048828125 pbc="F F F"
C        1.88972616       0.00000000       0.00000000
C        4.13880253       0.00000000       0.00000000
C        6.79575777       0.00000000       0.00000000
C        8.22832108      -2.06375098      -0.12676282
C       10.93113995      -1.34395432      -0.08050233
O       10.98550701       1.37477577      -0.03322139
C        8.41976929       2.28173089       0.14354360
H       -0.12322904      -0.00470542      -0.00088817
H        7.55627775      -3.98662305      -0.23995742
H       11.88528156      -2.05760932       1.60760891
H       11.93180656      -1.99653351      -1.76568449
H        8.08128166       3.59008288      -1.42092288
H        8.20222378       3.28120708       1.94078648
15
Properties=species:S:1:pos:R:3 energy=-1586.97998046875 pbc="F F F"
C        1.89301431      -0.22465064      -0.36481163
C        4.72433424      -0.02547351       0.13190289
C        5.72093821       2.70763731       0.00000000
C        4.68461227       4.24574232       2.09122753
C        3.84264469       5.50171089       3.78502703
C        8.44970226       2.70763731       0.00000000
C       10.69877911       2.70763731       0.00000000
H        1.31069517      -2.20984578      -0.35706374
H        1.40686333       0.57557279      -2.20933557
H        0.79432750       0.75861168       1.08464611
H        5.70149279      -1.19192588      -1.27947688
H        5.14610243      -0.86632603       1.98190701
H        5.07404709       3.54300976      -1.78598022
H        3.10451770       6.61740541       5.29062843
H       12.71254635       2.71345782       0.00850377
13
Properties=species:S:1:pos:R:3 energy=-1311.0699462890625 pbc="F F F"
C        1.87944603       0.06916398      -0.01587370
N        4.60860729      -0.07985982      -0.00270231
C        6.18344831       2.01607323       0.00771008
C        8.66465855       1.51317930       0.02093817
S        9.21541977      -1.74166608       0.02078699
C        5.90271091      -2.35250115      -0.00134171
N        5.10845900      -4.64052486      -0.01353044
H        1.21513164       2.02986813       0.00241885
H        1.09658921      -0.87639827       1.65018439
H        1.11490059      -0.84043682      -1.71012652
H        5.35023022       3.88416195       0.00438416
H       10.17131901       2.89097857       0.03040569
H        3.18331933      -4.65883636      -0.02687190
16
Properties=species:S:1:pos:R:3 energy=-1546.97998046875 pbc="F F F"
C        2.12777495       2.91618752       0.48528168
N        4.30789518       2.06036830      -0.18655376
O        6.09616184       4.00242090       0.08764550
C        8.49692726       3.09002352      -0.74838823
C       10.36134911       5.21373558      -0.62538594
C       11.95763874       5.62692404       1.69824016
C       13.15821934       4.67737436      -0.69732785
H        0.45825860       1.67773664       0.40821865
H        1.82889581       4.87058020       1.14676142
H        8.33490181       2.43345714      -2.70616341
H        9.07627869       1.50029135       0.44756272
H        9.69321823       6.86431694      -1.63946974
H       11.77002716       4.31853437       3.26408625
H       12.33815384       7.55864000       2.26536584
H       14.35160065       5.96788740      -1.75064230
H       13.78606224       2.72763062      -0.74744338
13
Properties=species:S:1:pos:R:3 energy=-1458.469970703125 pbc="F F F"
C        4.98798895      -2.23556495       0.71497786
C        4.16971874       0.12517546       0.30628681
C        5.71713972       2.32084823       0.13857362
C        4.81462526       4.72671509      -0.28340223
O        6.74649239       6.41803885      -0.34472385
C        8.90673256       5.08838987       0.04083698
C        8.37836552       2.56067348       0.34878674
H        3.65627980      -3.79294491       0.81243104
H        6.97178555      -2.68683147       0.96128482
H        2.14109755       0.39342210       0.08176845
H        2.95233798       5.51801920      -0.56572729
H       10.62970924       6.18582964       0.04408731
H        9.75565434       1.09114671       0.68224782
15
Properties=species:S:1:pos:R:3 energy=-1458.510009765625 pbc="F F F"
O        5.79571438      -1.89388359      -1.09849775
C        4.51353550       0.09718861       0.18458845
C        6.05494690       2.52779222       0.01101710
C        6.33481550       3.50389242      -2.67898917
C        6.03584194       6.26506567      -2.19640970
N        5.23081875       6.87463474       0.02845928
N        4.81258440       4.66637611       1.25610101
H        4.74742651      -3.39568663      -0.92982084
H        4.26471519      -0.46347424       2.16146874
H        2.64223409       0.32495731      -0.67249686
H        7.94389868       2.23643422       0.81630498
H        4.84803581       2.88903213      -3.97673965
H        8.19549656       3.11808586      -3.48675251
H        6.45921612       7.65339088      -3.68175340
H        5.22839975       4.78650618       3.13719106
20
Properties=species:S:1:pos:R:3 energy=-1851.0400390625 pbc="F F F"
C        3.91670299      -2.65614247       2.39377284
N        6.40925169      -2.44485211       1.20494604
C        6.49158716      -4.03089905      -1.06225288
C        6.96120310       0.22177826       0.62857962
C        9.64727879       0.72752565      -0.32603446
C       11.67865849      -0.16863915       1.49923313
O       14.08934498       0.51311731       0.50935680
H        3.85112953      -1.56416416       4.15282440
H        3.51802754      -4.62276125       2.90879869
H        2.39861059      -1.98682022       1.15237391
H        6.00318766      -5.99011040      -0.59685111
H        8.39920902      -4.09849453      -1.86088896
H        5.18569183      -3.36977863      -2.52800012
H        6.70442724       1.34642982       2.35550594
H        5.60608053       0.96033990      -0.75989670
H        9.87293053       2.76657796      -0.63353068
H        9.95063686      -0.12795335      -2.18769813
H       11.63627243      -2.22263908       1.73359692
H       11.46073532       0.72837603       3.35114574
H       15.34565353      -0.16856357       1.66509438
18
Properties=species:S:1:pos:R:3 energy=-1760.5400390625 pbc="F F F"
C        1.82776201      -0.23493075       0.02968760
C        4.71728563      -0.08736204      -0.04327473
N        5.59511995      -1.48009014      -2.28932762
C        5.71804667       2.68250394      -0.03367492
C        4.69918203       4.22523880       2.19571066
C        8.51860237       2.74142575       0.04764000
C       10.78699112       2.79830647       0.10881043
H        1.08441937       0.49690348       1.81549764
H        1.17654347      -2.19565392      -0.12268102
H        0.97579789       0.84206194      -1.51967990
H        5.45862532      -1.07841003       1.62087476
H        4.95414400      -0.62272143      -3.88933992
H        4.86508083      -3.26104379      -2.28688979
H        5.10320520       3.62173581      -1.77983856
H        5.10751390       3.29819560       4.00209999
H        2.65446043       4.49911690       2.05367875
H        5.56152058       6.10844517       2.25132513
H       12.79928493       2.83012938       0.15359694
19
Properties=species:S:1:pos:R:3 energy=-1843.6099853515625 pbc="F F F"
C        2.06785178       3.22876716      -1.99632561
C        4.50119543       2.05435896      -1.04588783
O        6.33759356       4.00319576      -0.76394069
C        8.68767548       3.03159308       0.11179620
C       10.46740055       5.21135426       0.37320203
C       11.74262619       5.78358221       2.49045110
C       13.50549507       7.97598600       2.72286868
H        0.59539604       1.79624140      -2.21940780
H        2.37262678       4.16178179      -3.81849408
H        1.39580846       4.67975569      -0.68238008
H        5.17773628       0.64447218      -2.40203094
H        4.17015314       1.13627338       0.78045690
H        9.44628716       1.69185293      -1.27458251
H        8.41612244       2.05396223       1.91861999
H       10.69082355       6.37854385      -1.30294728
H       11.50805378       4.62404633       4.17191076
H       13.63272953       9.06794548       0.97060114
H       15.40153217       7.30647469       3.20497561
H       12.86062527       9.24166775       4.22582436
18
Properties=species:S:1:pos:R:3 energy=-1716.1199951171875 pbc="F F F"
C        4.34835434      -0.93046337      -2.61808324
C        4.70519114       0.08586916       0.04871714
O        6.09249592      -1.73696065       1.48625076
C        6.15321302       2.58729959      -0.00916517
C        4.76796818       4.95444632      -1.03186607
C        6.10243607       6.34029579       1.15003061
N        6.20589828       3.89066267       2.49145269
H        3.24097490       0.37184140      -3.78207898
H        3.38559556      -2.76204252      -2.57212520
H        6.17360306      -1.23574865      -3.54811192
H        2.85613203       0.31297645       0.95253533
H        7.76702023      -1.88076878       0.74884176
H        8.05286026       2.37051034      -0.82679296
H        2.70372558       4.90007877      -0.85910732
H        5.27957344       5.55821371      -2.93892097
H        7.96457195       7.10493565       0.66074276
H        4.99333668       7.80409670       2.09457254
H        7.78312063       3.56655574       3.54363346
17
Properties=species:S:1:pos:R:3 energy=-1663.4300537109375 pbc="F F F"
C        2.02457690       0.00699199      -0.05500993
C        4.88813591       0.03431743      -0.04229207
O        5.79509068       2.01618671       1.55758786
C        8.26494408       1.19608331       2.28724885
O        8.56954861      -1.44067049       1.76679945
C        6.08826303      -2.29667854       1.11236835
C        6.26268482      -4.53521061      -0.66503245
H        1.28669560      -1.51727998      -1.23926353
H        1.29412222       1.80886471      -0.76738000
H        1.27388334      -0.21461619       1.86100233
H        5.61195755       0.39631337      -1.95114219
H        9.68477058       2.25712657       1.22063076
H        8.53186798       1.54316926       4.30679941
H        5.13803291      -2.84643769       2.87083411
H        7.37229395      -4.06117249      -2.34932637
H        4.39215803      -5.18157244      -1.26082528
H        7.24144936      -6.10840750       0.25743738
13
Properties=species:S:1:pos:R:3 energy=-1324.3199462890625 pbc="F F F"
C        1.73495758      -0.19016314       0.05100371
C        4.59649420       0.05075805      -0.04081808
C        5.40828276       2.74739718      -0.06052793
N        5.74620342       4.18364573       1.94515181
C        6.49447870       6.55190706       1.12004066
N        6.75125456       7.02426338      -1.33883321
S        6.01717138       4.33947277      -2.82939243
H        1.18474495      -2.18236923       0.10414281
H        0.85411841       0.67587948      -1.60878050
H        0.96069896       0.73519796       1.73476863
H        5.32517242      -0.94943619      -1.70372033
H        5.41287470      -0.88441074       1.61771894
H        6.87964249       8.04671860       2.46390057
15
Properties=species:S:1:pos:R:3 energy=-1487.75 pbc="F F F"
C        3.71208358      -1.55815482       0.88728309
C        6.04878664      -0.47296065      -0.37594211
N        6.28154421       2.18868089       0.35029852
C        8.23555851       3.25726414      -0.58602297
N        8.65252686       5.73458195      -0.04775338
C       10.64276791       7.13728762      -0.91307789
O       10.95277691       9.37207794      -0.40884224
H        3.47367573      -3.54864120       0.38053414
H        2.01310635      -0.53020048       0.30558762
H        3.85674214      -1.42358744       2.94702792
H        5.85966301      -0.65031147      -2.43179417
H        7.71473122      -1.54534245       0.23139696
H        9.64703274       2.34248567      -1.81717956
H        7.37913465       6.61096144       1.07100224
H       11.96022797       6.06883669      -2.12223792
19
Properties=species:S:1:pos:R:3 energy=-1781.510009765625 pbc="F F F"
C        1.65874493      -0.71522355       0.17905155
C        4.46493149      -0.38081762      -0.42932689
C        5.24863863      -2.23770022      -2.50090146
C        5.06601572       2.33033466      -1.25714028
C        4.72726345       4.17497206       0.88437295
N        3.13755012       6.02508926       0.68576270
N        3.08044267       7.51462841       2.76007724
H        1.08591223       0.49093196       1.75976968
H        1.25373876      -2.67383027       0.71631956
H        0.47282839      -0.24351011      -1.45102620
H        5.54823589      -0.82660401       1.28159332
H        4.21828461      -1.87857676      -4.26123810
H        4.86954069      -4.18967390      -1.92506397
H        7.27368832      -2.08189249      -2.90216589
H        3.89015245       2.89882088      -2.86456037
H        7.04968023       2.46401381      -1.84046102
H        5.89524651       3.87159538       2.59100342
H        1.54046690       8.68085384       2.65181494
H        4.59269571       8.72067070       2.77001715
18
Properties=species:S:1:pos:R:3 energy=-1716.52001953125 pbc="F F F"
N        2.62842011      -3.18360281      -0.59560388
C        4.94310760      -2.22893190       0.57058388
C        5.36493254       0.52878314      -0.16845019
C        7.71631861       1.63098478       1.08846331
O        9.88910675       0.26849228       0.24385026
C       12.18894100       1.04401696       1.11276519
C       12.74484253       2.95927334       2.66734838
H        2.42676735      -5.04989624      -0.15920943
H        2.80225587      -3.10495234      -2.51378918
H        6.53765869      -3.40369916      -0.03125607
H        4.77431726      -2.39851594       2.62675714
H        3.71907544       1.66719198       0.36915800
H        5.57280254       0.65732235      -2.22698545
H        7.54611111       1.49025691       3.15011668
H        7.88399410       3.62502384       0.54652768
H       13.64707279      -0.16627701       0.33264849
H       11.32815266       4.20042658       3.46938610
H       14.69868660       3.32990527       3.17394614
15
Properties=species:S:1:pos:R:3 energy=-1523.27001953125 pbc="F F F"
N        4.98745966      -2.12890887      -0.64513361
C        4.03014326       0.06993876       0.31817320
N        1.89445043      -0.02500108       1.51985002
C        5.41344166       2.55426717       0.00277790
C        4.07525110       4.69595051       0.24241407
C        8.12667274       2.51934505      -0.41583425
C        9.40943813       4.09993076      -1.91935706
H        6.22698784      -1.89543307      -2.09205914
H        3.70134997      -3.49091005      -1.02177489
H        1.29650331      -1.85540867       1.62285900
H        2.05517173       4.65254354       0.60837841
H        4.94698191       6.54442406       0.11546227
H        9.15341759       1.05346560       0.59991246
H        8.48456764       5.58814716      -2.98623967
H       11.44554234       3.93473101      -2.10842419
13
Properties=species:S:1:pos:R:3 energy=-1359.9000244140625 pbc="F F F"
C        1.99179029      -0.09133046      -0.00876833
C        4.76626730       0.18377587      -0.01226432
N        6.13414574       2.26604629      -0.01683746
C        8.57457542       1.38218343      -0.01827365
C        8.57969666      -1.21516955      -0.01460758
N       10.36603642      -2.99411988      -0.01328477
O        6.13626194      -2.01063085      -0.01124387
H        1.07470620       1.76150823       0.01477766
H        1.37027824      -1.14254737       1.65927398
H        1.36305940      -1.10392129      -1.69788110
H       10.17541981       2.64756298      -0.02159957
H       12.23788548      -2.59491515      -0.02607822
H        9.89103413      -4.84988785      -0.01919962
17
Properties=species:S:1:pos:R:3 energy=-1750.8699951171875 pbc="F F F"
C        1.89159691      -0.10193183       0.00527234
C        4.76210976       0.00000000       0.00000000
C        5.67299557       2.57223845       0.00000000
C        6.42374611       4.69232225       0.00000000
C        7.65720797       7.10278130       0.07194187
C        7.35698748       8.86844730      -2.13826299
C        6.12972355       9.47673130       0.34644350
H        1.24240041      -2.06603765       0.00445975
H        1.10596228       0.83516449      -1.66537786
H        1.11227393       0.83166850       1.68081689
H        5.47215557      -1.00682724      -1.66437626
H        5.47842932      -1.00920820       1.66021895
H        9.49744225       7.09522247       0.98299772
H        6.14996243       8.30891800      -3.69209027
H        8.99810123       9.95938587      -2.70272422
H        6.92928553      10.99499321       1.47028255
H        4.08723211       9.32935143       0.47556847
14
Properties=species:S:1:pos:R:3 energy=-1459.030029296875 pbc="F F F"
O        5.01769543      -1.81668818      -2.32003570
C        4.50862217      -0.40621552      -0.08957302
C        6.02061081       2.05793071      -0.11703074
C        8.84021473       1.65439856       0.13921613
C       10.46218491       2.29813385      -1.70731091
C        9.78864956       0.60180217       2.43982530
N       10.51721382      -0.25101233       4.32085896
H        4.10155630      -3.40513539      -2.17730474
H        4.95714855      -1.57136393       1.56000674
H        2.48423409       0.01972874      -0.05552015
H        5.37882185       3.26750660       1.43972564
H        5.60953856       3.07575607      -1.87683821
H        9.80270863       3.10009575      -3.47760630
H       12.48825550       2.01749063      -1.51472890
9
Properties=species:S:1:pos:R:3 energy=-1019.739990234375 pbc="F F F"
C        1.70345581       0.19129698       0.00355269
C        3.96880293       0.11510322      -0.00107714
C        6.65892267       0.03588590      -0.00659514
N        8.06247902       2.08916783      -0.01681856
C       10.57152462       1.34077954      -0.01955867
N       11.18086720      -1.10316539      -0.01232101
S        8.43740082      -2.67912149      -0.00090707
H       -0.30951825       0.27576774       0.00759670
H       12.06958675       2.73549199      -0.02772228
13
Properties=species:S:1:pos:R:3 energy=-1390.9000244140625 pbc="F F F"
C        6.32763481      -2.95581508      -2.11694670
C        5.19587755      -1.57155299      -0.32758403
C        6.15017033       0.88323909       0.66546708
O        4.94911718       1.92045307       2.36453867
C        8.55335426       1.98487389      -0.39310083
C        9.19506741       4.51056862       0.71860617
O       10.20554161       6.20019150      -0.51415670
H        5.48935223      -4.73266792      -2.71727490
H        8.07491302      -2.40902281      -3.03627968
H        3.44546199      -2.21218896       0.53411222
H        8.35723782       2.21264243      -2.44088364
H       10.11693192       0.70394188       0.04193302
H        8.93987846       4.71133280       2.77865338
15
Properties=species:S:1:pos:R:3 energy=-1512.800048828125 pbc="F F F"
C        1.77320564       0.09743428      -0.11661500
C        4.63944769      -0.02010669      -0.10117593
C        5.82865238       2.57873917       0.00961871
O        4.65154219       4.56975460      -0.07445521
C        8.62567425       2.61715722       0.09994762
C        9.95783615       3.95300460       2.23327827
O        9.73622799       1.25398445       2.16817737
H        0.97475851      -1.80795765      -0.21068557
H        1.07973278       1.16972160      -1.74474633
H        1.06034422       1.01436722       1.59555244
H        5.30610514      -0.96317452      -1.81935275
H        5.26978493      -1.11259520       1.53795362
H        9.57125473       2.55400276      -1.71190286
H        8.83163548       4.97551680       3.60189366
H       11.79846764       4.76403761       1.86425257
15
Properties=species:S:1:pos:R:3 energy=-1523.3299560546875 pbc="F F F"
C        6.41509104      -1.27751160       0.35080877
C        4.86973000       0.69545704       0.71021575
C        5.00080109       3.19477105      -0.46630883
C        3.07985687       4.78703547       0.01137615
N        7.07237577       3.78480029      -1.95021629
C        7.64016294       5.90792656      -3.27788115
N        9.65795517       6.27910662      -4.58846283
H        6.07176542      -3.03272700       1.36224687
H        8.01281643      -1.27539504      -0.92526662
H        3.30960965       0.40632892       2.02750611
H        1.48742235       4.25849771       1.19345653
H        3.00706458       6.68473625      -0.75485110
H        8.39832115       2.41711092      -2.00492382
H        6.20744801       7.41390562      -3.19405293
H       10.80898762       4.73304605      -4.50359535
12
Properties=species:S:1:pos:R:3 energy=-1243.030029296875 pbc="F F F"
O        1.75015092      -0.07209305      -0.12863366
N        4.36575890      -0.03392058      -0.04478651
C        5.83836555       2.08400893      -0.02519005
C        8.32645416       1.29809070       0.02541682
C        8.28195190      -1.36326730       0.03331587
O       10.29297924      -2.89883995       0.06491210
C        5.81737089      -2.16056180      -0.00430858
H        1.37267816       1.69232535       0.19076785
H        5.03296423       3.95956206      -0.05731539
H        9.97886848       2.50156283       0.04522115
H        9.75144005      -4.65407419       0.04595814
H        4.95508862      -4.01084900      -0.01636503
16
Properties=species:S:1:pos:R:3 energy=-1534.6800537109375 pbc="F F F"
O        1.90809429       0.06854036      -0.08927067
C        4.59048510       0.03388279      -0.00721875
C        5.66997194       2.08741045       1.68992543
N        8.24427032       1.20475709       2.26906967
C        7.98656845      -1.54972661       2.62560439
C        5.59786034      -2.38462663       1.21161675
O        6.08733702      -4.24562883      -0.67419761
H        1.39140534      -1.49736226      -0.91207629
H        5.29015589       0.24220620      -1.94860995
H        4.56306505       2.29584718       3.42904043
H        5.69280005       3.92970443       0.75099605
H        9.36748600       1.53472221       0.73572707
H        9.68970299      -2.53204393       1.98011172
H        7.76930666      -1.92995846       4.65020037
H        4.21586561      -3.18670177       2.52756548
H        7.49695921      -3.66244054      -1.70115042
14
Properties=species:S:1:pos:R:3 energy=-1455.550048828125 pbc="F F F"
C        1.77794886      -0.24938716       0.01262337
C        4.63956118       0.02333812       0.01432412
C        5.46093035       2.70604992      -0.00054802
C        5.96119785       4.25503969       2.02574873
O        6.66219187       6.57628489       1.19935250
N        6.64008188       6.60599136      -1.41608512
C        5.92128658       4.28680611      -2.10086513
H        1.24840975      -2.24839616       0.02163736
H        0.94474971       0.62952447      -1.66520774
H        0.94117808       0.64575720       1.67985320
H        5.41873312      -0.94926614      -1.64230430
H        5.41559601      -0.93497980       1.68128932
H        5.91378450       4.02033567       4.05298996
H        5.76568651       3.85462546      -4.09095478
16
Properties=species:S:1:pos:R:3 energy=-1584.2099609375 pbc="F F F"
O        2.35488224       0.13995312       1.38751256
N        4.48808050      -0.00032125      -0.16776988
C        5.59682083       2.17704010      -0.32148021
C        4.79295015       4.58729124       0.95765650
C        6.21232367       6.53786659      -0.61058939
C        8.67650700       5.23216057      -1.33318293
C        7.93358040       2.51021767      -1.91045642
H        1.65717649      -1.56115949       1.25154674
H        5.45928669       4.55758476       2.91660333
H        2.75276399       4.88199425       0.90077573
H        5.13002062       6.99270487      -2.31914759
H        6.53115797       8.29448032       0.43100873
H        9.59589672       6.14026833      -2.94699001
H        9.99666977       5.28390121       0.26318216
H        7.43816996       2.25724006      -3.90167975
H        9.40605545       1.16613114      -1.37252700
17
Properties=species:S:1:pos:R:3 energy=-1570.27001953125 pbc="F F F"
C        2.44853711      -0.31573543       0.72274464
N        5.09789515       0.16208181       1.29928124
C        5.84303331       2.79834414       0.79886281
C        4.50215912       4.70825243       2.49441957
C        8.66087914       2.99075627       1.31288719
N       10.23626900       3.55723929      -0.47350869
O       12.68134785       3.61094546       0.53333741
H        2.06293845      -2.33936763       0.91239756
H        1.97223163       0.23770864      -1.21598208
H        1.19198251       0.66195214       2.04205704
H        6.17494488      -0.98178834       0.17470518
H        5.51202869       3.26877260      -1.19226599
H        4.68761683       4.20651150       4.49656534
H        2.48878813       4.84425640       2.04332304
H        5.32199812       6.59574890       2.25858188
H        9.30040073       2.62176824       3.26718521
H       13.70578671       4.06274128      -0.93152159
15
Properties=species:S:1:pos:R:3 energy=-1577.219970703125 pbc="F F F"
C        3.21361160      -0.96353358       0.52092189
O        1.48795152      -3.07020020       0.27215835
C       -0.21512643      -1.56620502      -1.24890113
C       -2.70404696      -1.04324222      -0.11621816
C       -2.72205591       1.24814522       0.94628036
C       -0.25624686       2.61672258       0.69031698
C        1.39939892       0.82488436      -0.85655618
H        4.98927402      -1.34015596      -0.47039062
H        3.60680699      -0.51803064       2.50224304
H       -0.30783638      -2.26689649      -3.19337249
H       -4.26263618      -2.36009789      -0.13914053
H       -4.33792305       2.04927564       1.91204381
H        0.56147546       3.02293825       2.54449725
H       -0.54344743       4.40249491      -0.31475279
H        2.16711903       1.65046787      -2.59117365
18
Properties=species:S:1:pos:R:3 energy=-1710.27001953125 pbc="F F F"
C        2.87673020       0.73393184       3.46953726
N        5.57369041       0.20601794       3.42828441
C        6.60635042       0.50884658       0.87569910
C        9.36085320      -0.27491736       0.80498552
C       11.19653320       1.40287602       0.28410143
O        9.71062183      -2.81826186       1.28669560
C       12.23161125      -3.74772382       1.35468793
H        2.15292716       0.47373545       5.38889408
H        1.82948172      -0.53781605       2.21840620
H        2.49200082       2.69087553       2.92036390
H        5.88617563      -1.62163067       3.96137619
H        6.39239550       2.47943401       0.26972061
H        5.56414747      -0.67004019      -0.47568187
H       10.74148655       3.37359571      -0.06425069
H       13.18061256       0.91162276       0.20877694
H       12.15422726      -5.76398611       1.80661595
H       13.33145142      -2.80716920       2.83371997
H       13.14391422      -3.54561758      -0.49134770
17
Properties=species:S:1:pos:R:3 energy=-1749.1199951171875 pbc="F F F"
C        1.88972616       0.00000000       0.00000000
C        4.61849070       0.00000000       0.00000000
C        6.86756706       0.00000000       0.00000000
C        9.59633160       0.00000000       0.00000000
C       10.33049011       2.73006845       0.16200621
C       10.66691780       4.01744461       2.68552756
C       12.93666840       3.43845129       1.07992184
H        1.14534414       1.92924035       0.02250664
H        1.14507949      -0.98390484       1.65950084
H        1.14500391      -0.94501424      -1.68191290
H       10.34498405      -0.82235211      -1.74436843
H       10.34661007      -1.09076881       1.59079039
H        9.58327389       3.83854389      -1.39595962
H       10.38701153       2.91775608       4.39161015
H       10.06934929       5.97108126       2.84492612
H       13.88334560       5.00490189       0.15739529
H       14.20021439       1.95301306       1.70812345
17
Properties=species:S:1:pos:R:3 energy=-1667.7099609375 pbc="F F F"
C        5.78331804      -1.68801677       1.79293442
C        5.00773668      -0.00466762      -0.41539961
C        5.79444838       2.77162361      -0.10274441
C        4.80876732       4.35889912      -2.30176210
O        4.71847630       3.76087618       2.16024041
C        8.67524147       2.99162555      -0.04535343
O        9.84118366       3.65741372       1.85168600
H        5.11146355      -3.61918449       1.47757685
H        4.97309780      -1.02013087       3.57422805
H        7.83947229      -1.76330340       1.99732709
H        2.94341850      -0.11527330      -0.58356631
H        5.80956602      -0.78540796      -2.16044831
H        5.53657627       3.68914223      -4.11996222
H        5.36980820       6.34154320      -2.08406568
H        2.73921466       4.33306646      -2.36748672
H        6.09298706       3.85653424       3.39604568
H        9.67227936       2.46191621      -1.79864132
11
Properties=species:S:1:pos:R:3 energy=-1132.010009765625 pbc="F F F"
C        1.81648040      -0.00912738      -0.05098481
C        4.63001823       0.10057122      -0.28763521
C        6.00016403       2.13236690       0.34402463
C        8.77832603       2.11879873       0.06432628
O       10.05307865       3.96419191       0.63504249
H        1.27720916      -1.54717553       1.22144341
H        0.96848464      -0.36781630      -1.90238726
H        1.02510083       1.75136042       0.69188541
H        5.53759670      -1.59371948      -1.01699388
H        5.17711258       3.85870743       1.07712495
H        9.62509346       0.36774072      -0.68045259
15
Properties=species:S:1:pos:R:3 energy=-1480.050048828125 pbc="F F F"
C        2.14723921      -0.04535343       0.29453272
N        4.87107134      -0.09197297       0.42683244
C        6.22953892       2.25816607       0.11642603
C        8.49242878       1.43949890      -1.44410980
O        8.59974670      -1.25407898      -1.22257721
C        6.32289124      -2.06976032      -0.35547638
N        5.84201288      -4.43488503      -0.35634565
H        1.31832969      -1.85591888       0.84980983
H        1.52202320       0.39429137      -1.62858486
H        1.38957226       1.39643204       1.57111835
H        6.82822323       2.96458340       1.96724272
H        5.14307880       3.73991919      -0.83510774
H        8.25821686       1.91712713      -3.44446063
H       10.25442886       2.27626967      -0.76025569
H        4.10465527      -4.71726656       0.42182466
13
Properties=species:S:1:pos:R:3 energy=-1350.5899658203125 pbc="F F F"
N        2.04525065      -0.16896041      -0.26732066
C        4.54756927       0.16856357      -0.12715967
C        6.04323101       2.28891182      -0.07759216
C        8.56841469       1.41011369       0.10081689
C        8.42281151      -1.18215597       0.15185839
N       10.17264175      -3.00045037       0.29509965
O        5.98136139      -1.95053756       0.01203756
H        0.85923958       1.26379216       0.18725297
H        1.37179005      -1.91225171       0.15966296
H        5.40244341       4.22472858      -0.16359359
H       10.27274036       2.52716851       0.18700729
H        9.61868668      -4.78646851      -0.13027772
H       11.99428082      -2.61572123      -0.15028992
15
Properties=species:S:1:pos:R:3 energy=-1578.93994140625 pbc="F F F"
O        3.44861794       1.02721739       2.26842713
C        5.18576765       0.14086019       0.39746609
C        6.38614035       2.08654118      -1.28733814
C        7.94112062       0.84387612       0.74064034
C        9.32908630      -1.50637627       0.20870136
C        7.82420301      -3.47794652      -0.33805311
C        5.09351110      -2.65075660      -0.25998852
H        1.77430165       1.26403785       1.54991555
H        5.87389231       4.05004215      -1.00864136
H        6.75150013       1.59833038      -3.24207091
H        8.46483898       1.89344895       2.41575027
H       11.37129498      -1.60193980       0.27947161
H        8.44790745      -5.37039375      -0.77151847
H        4.18217182      -2.94173670      -2.09336305
H        4.07139587      -3.72158885       1.18517959
16
Properties=species:S:1:pos:R:3 energy=-1553.3199462890625 pbc="F F F"
C        1.86447942      -0.13556895       0.31165364
C        4.65947866       0.24432269      -0.15966296
C        6.02854776       2.18034720       1.50650859
C        7.82104731      -0.01215094       2.12611198
C       10.38567066       0.00472432       0.84448081
O        6.13346529      -1.80703175       0.91183066
H        1.16240835      -1.77001202      -0.74562925
H        0.79175746       1.52389407      -0.30277193
H        1.46310151      -0.45206028       2.31773019
H        5.08474302       0.44599426      -2.17891097
H        4.94992971       2.87276173       3.12762904
H        6.86252165       3.77648544       0.49490038
H        7.96593285      -0.40137783       4.15635824
H       10.21623707       0.27040091      -1.19973040
H       11.37501717      -1.78032994       1.17692149
H       11.55975723       1.53288913       1.59334147
14
Properties=species:S:1:pos:R:3 energy=-1493.6199951171875 pbc="F F F"
C        1.88972616       0.00000000       0.00000000
C        4.13880253       0.00000000       0.00000000
C        6.79575777       0.00000000       0.00000000
C        8.22663879      -2.07159328      -0.12328573
C       10.94506741      -1.38522589      -0.10879153
N       11.03477192       1.39656425      -0.32835880
C        8.41931534       2.29546928       0.11013324
H       -0.12304007      -0.00495108       0.00221098
H        7.53879786      -3.99123383      -0.20095348
H       11.84036255      -1.98536515       1.65470088
H       11.94631958      -2.26009345      -1.69238198
H       11.49225616       1.82148814      -2.15224695
H        7.89588070       3.68095970      -1.33588517
H        8.29965782       3.19732213       1.96894348
18
Properties=species:S:1:pos:R:3 energy=-1722.8599853515625 pbc="F F F"
C        1.79697835       0.19135366      -0.08811793
C        4.67342520      -0.21728072      -0.05482095
N        5.22110558      -2.02712822       1.99728930
C        5.54341698      -1.45121515      -2.57582903
O        4.58046961      -3.96935081      -2.78419018
C        5.98434687       2.30419970       0.30214831
C        7.49622250       3.04189205       2.19899869
H        1.23561633       1.42536378      -1.65572131
H        1.13345778       1.07591558       1.66556680
H        0.76919413      -1.59385169      -0.31189930
H        4.61399317      -1.27142668       3.66291285
H        7.13186407      -2.22834611       2.15200114
H        7.60958719      -1.57293248      -2.67122245
H        4.88934517      -0.37467599      -4.21832228
H        4.52398539      -4.57795620      -1.03513527
H        5.62550688       3.67821956      -1.19256842
H        7.97254658       1.83465946       3.78447890
H        8.30508137       4.92955828       2.20272136
15
Properties=species:S:1:pos:R:3 energy=-1518.8800048828125 pbc="F F F"
C        1.75619805      -0.10852697      -0.06190743
C        4.55958796       0.10580577      -0.05051238
C        5.85915279       2.28299713      -0.02082478
C        8.68684387       2.32827497       0.06585696
N        9.79133224      -0.12882262      -0.53226024
N        8.58914566      -2.33201647      -0.00621720
C        6.13873768      -2.20827723       0.11551896
H        1.13682139      -2.08196807      -0.08643607
H        0.95933837       0.81868607      -1.73080015
H        0.95665497       0.77571368       1.63038015
H        4.88320351       4.08566332      -0.03231432
H        9.38825417       3.70926785      -1.30801177
H        9.29310608       2.94615865       1.94745731
H       11.64507866      -0.20696281      -0.01084703
H        5.09695053      -3.98484659       0.42938358
21
Properties=species:S:1:pos:R:3 energy=-2050.010009765625 pbc="F F F"
C        7.87745571      -2.78715706       2.57138824
C        7.82238913      -1.63757992      -0.06014998
C        7.47108889       1.17671359       0.04261332
C        9.28001022       2.97002578      -0.03195527
C       12.07126808       2.44679856      -0.18982299
C        8.56246281       5.73919296       0.03599928
C        8.68370724       6.82799625       2.69552422
H        8.05344582      -4.84467220       2.44902849
H        6.14518166      -2.35461760       3.61818314
H        9.48466778      -2.07401228       3.66355538
H        6.24633837      -2.45218420      -1.13215387
H        9.53557682      -2.15733027      -1.09564435
H        5.50617075       1.77709842       0.19367804
H       12.53266335       0.43631887      -0.10068461
H       13.06411171       3.36119914       1.37793159
H       12.83345127       3.18861055      -1.96469152
H        6.64743280       6.00600338      -0.70849609
H        9.81234646       6.81442785      -1.21870327
H        7.38353777       5.83564425       3.96706438
H        8.14585304       8.82636261       2.67252636
H       10.58993053       6.69174719       3.48996520
15
Properties=species:S:1:pos:R:3 energy=-1608.4599609375 pbc="F F F"
C        3.06840491      -1.14050639       1.92695379
C        4.56363201      -0.20276761       0.11143715
C        5.92249632       2.28112626       0.27002296
C        8.66074753       1.87035644       0.11372372
C       10.90428638       1.54936755      -0.01252888
C       13.55338001       1.15912020      -0.16053224
C       15.17826176       3.09433198      -0.14998756
H        2.13701558      -2.95305610       1.68527663
H        2.74992943      -0.13929172       3.68865085
H        4.81893396      -1.28338861      -1.62098813
H        5.45875740       3.27300572       2.02807307
H        5.29648638       3.48807549      -1.29134440
H       14.23959637      -0.76979882      -0.28268412
H       14.53685093       5.04120350      -0.02851597
H       17.19664001       2.76327085      -0.26318216
15
Properties=species:S:1:pos:R:3 energy=-1452.8499755859375 pbc="F F F"
C        1.84527981       0.08258103       0.25241071
N        4.58043146       0.01065806      -0.15233083
C        5.14931488      -1.42530704      -2.45048356
C        5.58909178       2.59740973      -0.29271859
C        8.36955929       2.63798213      -0.17141706
C       10.63602161       2.67932940      -0.06810573
H        1.39476907       1.05616796       2.02370763
H        1.08373904      -1.83511305       0.42764503
H        0.85003662       1.04112577      -1.29087198
H        4.38431597      -3.34521198      -2.30930209
H        7.18946314      -1.63962090      -2.72224498
H        4.35377789      -0.53706014      -4.14439631
H        4.89068699       3.69900656       1.32061625
H        4.93237400       3.56421256      -2.00526404
H       12.64650059       2.70245957       0.03324028
15
Properties=species:S:1:pos:R:3 energy=-1554.699951171875 pbc="F F F"
O        1.81903148      -0.58141202      -0.41972706
C        4.25258303       0.46697024       0.22873245
C        6.68603992      -0.85557353      -0.97933167
C        7.94956779       1.78635812      -0.30658916
C        5.35185575       2.66154695      -1.53918195
C        5.41370630       1.58897626      -4.15163374
C        6.30329514      -0.75521016      -3.77907443
H        0.65424210       0.83176297      -0.30050424
H        4.33574963       0.83064801       2.26848388
H        7.44410372      -2.57424164      -0.14278771
H        8.22930336       2.21205664       1.70122600
H        9.67947960       2.27980351      -1.33297503
H        4.72182083       4.60212564      -1.27787066
H        4.84646702       2.47994423      -5.89309216
H        6.62989616      -2.23615074      -5.13960171
17
Properties=species:S:1:pos:R:3 energy=-1659.1300048828125 pbc="F F F"
C        4.33181906      -0.55633539      -2.99408197
C        4.66435432       0.22073890      -0.24946275
C        5.99526978       2.75423813       0.04663844
C        4.56482267       5.00108480      -0.98345125
O        5.67611361       7.08484793       0.31891018
C        6.41068792       6.06649351       2.71239948
O        6.25699663       3.36756754       2.66882253
H        3.45886016      -2.42750430      -3.10243893
H        6.15555620      -0.64243132      -3.96309590
H        3.11462760       0.77012008      -4.00765562
H        5.75174046      -1.23444474       0.75260234
H        2.81693912       0.27578664       0.69243348
H        7.90542364       2.67305541      -0.75880063
H        2.55337906       4.94303226      -0.49830189
H        4.76934767       5.24036169      -3.02486563
H        8.35308075       6.64165020       3.12643862
H        5.15738392       6.79203463       4.18823767
21
Properties=species:S:1:pos:R:3 energy=-1927.3399658203125 pbc="F F F"
C        1.67473197       0.67217559       2.73471713
C        4.35510063       0.20017868       1.79265094
C        5.57573128       2.51448846       0.50837409
N        5.75827885       4.66511011       2.26075506
C        8.25273609       1.89341104      -0.52500373
N        8.20539856      -0.07759216      -2.47971749
C       10.74838448      -0.61312163      -3.39039540
H        0.84782565      -1.09381127       3.42620587
H        0.46923789       1.39151871       1.21592534
H        1.64366484       2.02487946       4.29769087
H        4.27760315      -1.37422776       0.44748715
H        5.52635288      -0.43592203       3.38117361
H        4.38429689       3.10674763      -1.08211386
H        6.66655684       4.10338926       3.86534023
H        3.99270797       5.19960022       2.81223369
H        9.46242523       1.28495705       1.04671931
H        9.08206177       3.62137675      -1.31986034
H        7.12413502       0.53248703      -3.95436525
H       11.95960426      -1.30612206      -1.86308098
H       11.61939716       1.05992854      -4.24058342
H       10.66432953      -2.09022617      -4.83545017
11
Properties=species:S:1:pos:R:3 energy=-1239.219970703125 pbc="F F F"
O        1.98324871      -0.15293553       0.26446718
C        4.54728556       0.04229207       0.06795456
C        5.71069574       2.36128831      -0.05997991
C        8.30077362       2.28649306      -0.26104677
N        9.64204407       0.12880373      -0.33034304
C        8.28697777      -2.01134896      -0.18740414
N        5.77041101      -2.16895199       0.01226432
H        1.26849759       1.52941203       0.23328669
H        4.69738674       4.12978840      -0.00818251
H        9.40832329       4.01016903      -0.37596101
H        9.32657337      -3.77682567      -0.23908815
16
Properties=species:S:1:pos:R:3 energy=-1606.449951171875 pbc="F F F"
C        2.19760036      -3.60945249      -1.06436932
C        3.11434436      -1.91140127       0.57262480
C        4.08509636       0.65955222      -0.17555556
C        6.85481167       1.06108117       0.57105637
N        8.56268883      -0.59821171      -0.78603160
C        9.45535851      -0.00619830      -3.14303041
O        9.05613422       1.96155465      -4.28336668
H        1.49868512      -5.42678308      -0.41740271
H        2.10791397      -3.22330594      -3.07834506
H        3.14270902      -2.37177634       2.57645249
H        2.92327404       2.08400893       0.78043801
H        3.85409641       0.96213514      -2.21286941
H        7.13373518       0.70704103       2.59166479
H        7.39096451       3.02422333       0.18755531
H        8.80098343      -2.38285017      -0.14303337
H       10.61646271      -1.54311252      -3.93849158
17
Properties=species:S:1:pos:R:3 energy=-1674.25 pbc="F F F"
C        1.86784315       0.21794212      -0.32461715
C        4.66871977      -0.17455401       0.01069585
C        5.45014048      -2.90345073       0.14688841
C        6.21667004       1.83460283       0.23519531
C        9.02342319       1.79049659       0.45498937
N       10.49536896      -0.10448296      -0.45355317
N       10.22409916       3.67559290       1.46077716
H        1.36137760       2.22061729      -0.44652340
H        0.83057243      -0.59609520       1.26999044
H        1.22412682      -0.69672310      -2.06579185
H        4.03989410      -4.00285578       1.19075418
H        7.23509979      -3.18413186       1.14381349
H        5.60488987      -3.69947910      -1.75599027
H        5.41865730       3.72635102       0.24415262
H        9.86677074      -0.94520324      -2.05099535
H       12.33033085       0.43975818      -0.55323625
H        8.98457050       5.01401043       2.10398316
16
Properties=species:S:1:pos:R:3 energy=-1611.739990234375 pbc="F F F"
N        1.76944506       0.27213946      -0.56512260
C        4.04352283       0.12315346       0.65293819
O        4.50994492      -1.74867702       1.95068872
C        5.82870913       2.40320253       0.22716399
C        4.72049809       5.11921120       0.39255282
C        7.23708439       5.94383097       1.59787679
C        7.56810760       3.18613505       2.46235085
H        1.27152109       1.73835909      -1.68034446
H        0.55053389      -1.18616223      -0.34580100
H        6.92735815       2.13344407      -1.51848948
H        3.09193206       5.30427217       1.65991652
H        4.26960945       6.01363754      -1.41444111
H        8.65692997       6.56292439       0.22300658
H        7.09622383       7.34948492       3.10376167
H        9.50056076       2.45961094       2.38993669
H        6.77453613       2.79898667       4.33669472
13
Properties=species:S:1:pos:R:3 energy=-1369.6700439453125 pbc="F F F"
C        1.88972616       0.00000000       0.00000000
C        4.61849070       0.00000000       0.00000000
C        6.86756706       0.00000000       0.00000000
C        9.60602570       0.00270231      -0.03537567
O       10.73105526      -1.77124035      -1.01153266
C       10.91037178       2.37389278       0.95712739
O        9.74769878       3.60212040       3.03629851
H        1.14528739       1.92920256       0.02432078
H        1.14509845      -0.98545438       1.65861261
H        1.14498508      -0.94348359      -1.68278217
H       11.07744217       3.72835398      -0.59940225
H       12.82005310       1.84023416       1.55095494
H        8.13534641       4.27350235       2.46080136
10
Properties=species:S:1:pos:R:3 energy=-1082.199951171875 pbc="F F F"
C        1.72027445       0.00096376       0.00264562
C        4.23563194      -0.00009449      -0.00041574
C        5.97811079       2.12624431      -0.00394953
N        8.31696796       1.37231910      -0.00629279
N        8.31621265      -1.37437892      -0.00445975
C        5.97741175      -2.12724590      -0.00111494
H        0.65856957       1.75512099       0.00275900
H        0.65762472      -1.75277770       0.00510226
H        5.31398535       4.09089804      -0.00444086
H        5.31190681      -4.09144592       0.00100155
15
Properties=species:S:1:pos:R:3 energy=-1484.52001953125 pbc="F F F"
N        3.16963768      -1.43080616      -0.85254997
C        5.71241522      -0.76787132      -0.05000215
C        5.77538109       1.93987942       0.74494892
C        7.32837677       3.67920232      -0.25072888
C        7.35326433       6.27887964       0.57339960
C        8.90569305       8.01858044      -0.40239829
H        3.14800024      -3.27275991      -1.40671217
H        2.72627020      -0.39962038      -2.41758323
H        7.04858398      -1.14679921      -1.58470547
H        6.25217772      -1.95460045       1.55673754
H        4.47052526       2.45987535       2.24677110
H        8.63737106       3.14680982      -1.74399042
H        6.04077435       6.82945156       2.05779839
H       10.25180244       7.57659245      -1.88509631
H        8.85673046       9.95330048       0.27854562
15
Properties=species:S:1:pos:R:3 energy=-1586.4300537109375 pbc="F F F"
C        1.74627697      -0.00113384      -0.33502954
C        4.62587929       0.00100155      -0.11514101
C        5.51652622       2.36873388       1.19806743
C        6.87253714       2.26234221       3.33336353
O        7.57362556       0.04421959       4.50401115
C        6.87374640      -2.19531369       3.37421942
C        5.51767921      -2.34148407       1.24145555
H        1.08011079      -1.68714750      -1.33679223
H        1.08258629       1.65411508      -1.38853300
H        0.83595812       0.02853487       1.52663410
H        5.43655300      -0.01666738      -2.02302742
H        5.04779863       4.18523312       0.37023515
H        7.56268406       3.88879180       4.35854006
H        7.56500816      -3.80231786       4.42870569
H        5.05023623      -4.17302561       0.44690132
15
Properties=species:S:1:pos:R:3 energy=-1517.8299560546875 pbc="F F F"
C        1.79157376       0.00636838       0.02458534
C        4.65492439      -0.00727545       0.02774118
C        5.97087336       1.89645350       1.79952955
N        7.87685108      -0.06844588       2.38562799
C        5.97491741      -2.04230261       1.67594147
C        7.07213020      -4.15541315       0.31133237
N        7.95487785      -5.82043219      -0.81239325
H        1.05924821      -1.60751438      -1.04222178
H        1.07434714       1.73236859      -0.86173403
H        1.02247417      -0.09388159       1.94282746
H        5.39422321       0.09966416      -1.91317761
H        4.86330462       2.47376490       3.45277524
H        6.72674465       3.59047961       0.88750988
H        9.40437317      -0.02084368       1.20328307
H        4.84954739      -2.65294862       3.30959082
15
Properties=species:S:1:pos:R:3 energy=-1515.18994140625 pbc="F F F"
C        3.53681135       0.08783447      -1.30449688
O        6.04710484       1.03938723      -1.12729728
C        6.37535000       3.50661349      -0.35768735
C        4.52169895       5.13578415       0.23855902
C        9.11617088       4.25647593      -0.17563115
C       10.23864937       4.35453367      -2.79235387
O       11.44559860       6.16838741      -3.59956932
H        3.64573526      -1.87156582      -1.95458150
H        2.43423176       1.15675807      -2.69019532
H        2.61284876       0.09545007       0.54667890
H        2.53378248       4.65791035       0.15308671
H        4.95429516       7.04809284       0.84757996
H       10.17080879       2.86652565       0.93955296
H        9.35575104       6.10678244       0.72023129
H       10.04708767       2.62091780      -3.93805695
15
Properties=species:S:1:pos:R:3 energy=-1498.6500244140625 pbc="F F F"
O        2.56443405      -0.10712858       0.96032101
C        4.97487402      -0.15620476      -0.24090229
C        4.67818689      -0.74632841      -3.01284719
C        2.50891376      -1.12625790      -4.26125669
C        6.38608360       2.25848722       0.26985291
C        5.11087751       4.70670319       0.98679608
O        6.25200796       3.10257125       2.85104871
H        2.89832973       0.40336204       2.69926596
H        6.03869534      -1.71500206       0.61650425
H        6.43463087      -0.91457075      -4.06597233
H        0.69279248      -1.01565218      -3.30919385
H        2.50473762      -1.57771349      -6.25983143
H        8.21350574       2.33494568      -0.64687216
H        3.06517363       4.81853724       0.94473076
H        6.06286526       6.46558475       0.54904103
11
Properties=species:S:1:pos:R:3 energy=-1293.739990234375 pbc="F F F"
N        1.71265876       0.15255760      -0.01753666
C        3.90678191       0.08207081      -0.00914627
C        6.60697412      -0.00481880       0.00119053
C        8.18867493       2.06788945       0.00772898
N       10.63500118       1.20830977       0.01689415
C       10.63392353      -1.38346851       0.01628944
C        8.15692711      -2.18949342       0.00661404
H        7.78863859       4.07402277       0.00665184
H       12.19799328       2.31345940       0.02314915
H       12.39174652      -2.42920518       0.02279010
H        7.53779650      -4.14037085       0.00379835
17
Properties=species:S:1:pos:R:3 energy=-1692.1800537109375 pbc="F F F"
C        2.23193669      -1.08780193       0.40396675
O        4.70126057      -0.30898911       1.11818874
C        5.18270636       2.27929306       0.52050614
C        4.41237831       3.86726785       2.74817204
C        2.78020287       5.80376482       2.65831566
C        7.97659063       2.48262763       0.04928406
C        9.03517723       3.27158833      -2.11331844
H        2.01869988      -3.08531809       0.88803899
H        1.96393573      -0.87893051      -1.63654065
H        0.79532903      -0.00823921       1.42681885
H        4.14382935       2.83111215      -1.18933690
H        5.24336624       3.35320568       4.55673456
H        1.88738286       6.38341951       0.90621817
H        2.30709100       6.84857559       4.35889912
H        9.20166206       1.89747405       1.59288800
H        7.90323162       3.84289026      -3.72480130
H       11.07591152       3.33712411      -2.31294918
16
Properties=species:S:1:pos:R:3 energy=-1549.5699462890625 pbc="F F F"
C        2.23981690      -0.54333407       1.18625665
C        4.72573280       0.47129771       0.13891377
O        4.80234194       0.06013108      -2.53941393
N        5.69015455      -2.39437747      -3.03588271
C        5.82198143      -2.69131017      -5.45061255
C        4.91701078       3.28024340       0.55489916
C        6.70860338       4.41107416       1.94216609
H        2.06711483      -0.17789882       3.21538782
H        2.10184789      -2.58595800       0.88046122
H        0.61620188       0.30677813       0.22034207
H        6.32222986      -0.49633658       1.04401696
H        6.48807240      -4.49688673      -6.23985672
H        5.29433250      -1.20025957      -6.80860758
H        3.49372578       4.43923140      -0.37014067
H        8.18209839       3.33625484       2.88211584
H        6.74169254       6.45143032       2.15064073
14
Properties=species:S:1:pos:R:3 energy=-1437.8699951171875 pbc="F F F"
O        1.92217278      -0.19433944       0.18952063
C        4.20981836      -0.02619160       0.07613707
C        6.14555931      -2.15593195       0.10703409
N        8.60554790      -0.68674535      -0.07275446
C        8.08318996       1.36126423      -2.10035491
C        6.06796741       2.25410318      -0.14097357
C        8.23905468       1.58682191       1.73832130
H        5.91786623      -3.38714504      -1.53479779
H        6.06112671      -3.20467305       1.88356566
H        7.37333345       0.64005023      -3.90562940
H        9.67135334       2.64236617      -2.47019339
H        5.30895901       4.15747309      -0.22119245
H        9.84581375       2.89466357       1.82630694
H        7.68213367       1.08315325       3.66693807
13
Properties=species:S:1:pos:R:3 energy=-1364.8399658203125 pbc="F F F"
C        2.07255721       0.00015118      -0.31558427
N        4.75217009       0.02959311       0.16644707
C        6.24403286      -2.00001049       0.44021171
N        8.61127377      -1.61029232       0.87721086
C        8.84953117       1.19158566       0.92598468
C        6.19803715       2.13561726       0.44270614
O        5.52442551       4.33779097       0.33168474
H        1.33666003       1.91601217      -0.53855306
H        1.12846887      -0.93919390       1.26469922
H        1.71725082      -1.10129464      -2.02901793
H        5.37156534      -3.87922978       0.27701494
H        9.50415039       1.81854010       2.78165793
H       10.11889744       1.82519197      -0.57479799
16
Properties=species:S:1:pos:R:3 energy=-1625.2099609375 pbc="F F F"
N        1.80485857      -0.00627389      -0.03541347
C        4.56782722       0.00842818       0.02008779
C        5.62645149       2.70763731       0.00000000
C        8.35521603       2.70763731       0.00000000
C       10.60429287       2.70763731       0.00000000
C       13.26124763       2.70763731       0.00000000
C       14.58666420       4.85863686      -0.02163736
H        1.18606770      -1.82948172      -0.04769669
H        1.18706930       0.77781129      -1.68223417
H        5.28208685      -1.05212390      -1.60963094
H        5.20710278      -0.98456621       1.72167277
H        4.92101669       3.74101520       1.65226316
H        4.92959642       3.71403003      -1.67274773
H       14.23466492       0.90132380       0.02001220
H       13.66682053       6.69286203      -0.03970315
H       16.63644981       4.82399845      -0.01957756
14
Properties=species:S:1:pos:R:3 energy=-1467.3599853515625 pbc="F F F"
C        5.31283283      -2.07234931       0.76069033
C        4.25084448       0.18984188       0.35627007
C        5.47922325       2.53536987      -0.40835091
C        4.05669403       4.61346388      -0.70399857
N        8.04883480       2.50224304      -0.79083151
C        9.62545204       4.40294838      -1.53980553
O       11.90693760       4.09692621      -1.80270422
H        4.14027643      -3.66157126       1.32518935
H        7.31254101      -2.45791006       0.56285495
H        2.21043158       0.30256405       0.62712449
H        2.02816749       4.57612324      -0.38607106
H        4.80383492       6.43506527      -1.25889778
H        8.98748112       0.86449301      -0.50249708
H        8.71800613       6.23294020      -1.90304875
18
Properties=species:S:1:pos:R:3 energy=-1659.6600341796875 pbc="F F F"
C        5.53912735      -1.65487099      -0.41050521
N        5.39206886       0.29861453       1.53305924
C        5.97140217       2.83827424       0.48709580
C        4.91007519       4.82996988       2.33791256
O        5.91833878       4.45565319       4.81798887
C        8.85017300       3.21404624       0.16491640
O       10.17288685       2.60466623       2.44148827
H        4.94356155      -3.46305537       0.39529291
H        7.47054100      -1.89114344      -1.11733842
H        4.28109884      -1.23960364      -2.00299621
H        6.77859879      -0.09465639       2.82939243
H        5.02744627       3.12107158      -1.33696234
H        2.84607863       4.71976089       2.45430064
H        5.41221333       6.74197578       1.72683179
H        5.18896103       2.84896994       5.36729479
H        9.29191589       5.17195368      -0.33920583
H        9.59075737       1.99795079      -1.33422220
H        9.34976006       3.57861209       3.78827739
8
Properties=species:S:1:pos:R:3 energy=-963.0399780273438 pbc="F F F"
C        1.83154142       0.01955867      -0.00000000
C        4.37290192       0.00000000       0.00000000
C        5.70137930      -2.30098724       0.00000000
N        6.78893566      -4.18468523       0.00000000
C        5.74009991       2.31704998       0.00000000
N        6.81731939       4.22597551      -0.00000000
H        0.76730442       1.77728748      -0.00000000
H        0.73971438      -1.72121930       0.00000000
19
Properties=species:S:1:pos:R:3 energy=-1779.3399658203125 pbc="F F F"
C        1.56142402      -0.07522999      -0.25906256
C        4.31558657      -0.61807275      -0.47403780
C        5.58041811      -0.69866955      -3.02919316
N        5.99982357       1.41088843      -1.29181683
C        8.46640778       1.33777487      -0.01458869
C       10.25157547       3.30208850      -1.19882333
N       12.71094036       3.36161494       0.07694965
H        1.16461933       0.90727639       1.51780915
H        0.48756823      -1.84306884      -0.26762301
H        0.86795121       1.10246623      -1.81379700
H        4.97048998      -1.89737952       0.98545438
H        4.46735048      -0.26737735      -4.69254923
H        7.08849478      -2.04971027      -3.33243752
H        9.35803699      -0.53651214      -0.07432293
H        8.18470669       1.80313885       1.98687696
H        9.40135002       5.18850756      -1.09262073
H       10.55531120       2.86440897      -3.19979763
H       12.45762253       3.89555693       1.91085327
H       13.79152393       4.73758125      -0.72992563
16
Properties=species:S:1:pos:R:3 energy=-1504.1600341796875 pbc="F F F"
C        4.14974403      -1.57368839      -1.99868774
O        3.56120777       0.89828134      -1.12935698
C        5.77560759       2.26118970      -0.27469060
C        6.69099092       4.35993814      -1.97635114
N        5.43643951       4.84153509      -4.41494846
C        5.33046389       4.97742510       0.44705251
O        6.89062166       5.95554733       2.44543791
H        2.41420078      -2.45507550      -2.68970394
H        4.90529442      -2.71419477      -0.44860208
H        5.51573277      -1.48519242      -3.54843330
H        7.16659737       1.25224590       0.84729654
H        8.71668339       4.70441675      -1.99664688
H        3.61326981       4.20293999      -4.30560875
H        6.24699974       3.75928879      -5.78894901
H        3.40228176       5.66553116       0.33253512
H        7.02004910       7.78508568       2.31062484
18
Properties=species:S:1:pos:R:3 energy=-1698.7900390625 pbc="F F F"
C        1.99659014      -0.31966609      -0.10408612
C        4.86413622      -0.13432173       0.05610597
C        5.79450512       2.60835123       0.02050353
O        4.77756786       3.93722558       2.13153553
C        8.68754387       2.73012519       0.09707523
C        9.67384815       5.43109179      -0.03450640
H        1.41219234      -2.30372739      -0.13812009
H        1.29149556       0.58621192      -1.82487071
H        1.09156251       0.57952231       1.52378070
H        5.69608831      -1.17915130      -1.52737117
H        5.47398853      -1.06393468       1.80578446
H        5.10783529       3.54958606      -1.69147491
H        5.37783909       3.11215210       3.65930343
H        9.47918797       1.64600813      -1.48148859
H        9.38366222       1.87337995       1.85259306
H        9.03268337       6.36790466      -1.76281214
H       11.74198341       5.43383169      -0.03233321
H        9.03629208       6.54478312       1.58640623
14
Properties=species:S:1:pos:R:3 energy=-1392.699951171875 pbc="F F F"
O        2.99060488       3.95349598      -2.10239601
C        3.17995548       3.13012338       0.06169956
C        5.12578773       4.02642059       1.97400796
N        7.32081795       5.09940720       0.66132855
C        8.97818375       6.43497086       2.42980981
C       11.25524712       7.42106771       1.00459731
O       12.00473118       9.61148739       1.15549195
H        1.79333115       1.75667048       0.79580146
H        5.70774794       2.39475536       3.10444212
H        4.18886137       5.40960550       3.19579148
H        6.66835213       6.32472420      -0.69307595
H        9.67568111       5.15184689       3.89555693
H        8.00349998       8.02923870       3.31697965
H       12.31031895       6.00441599      -0.10578687
17
Properties=species:S:1:pos:R:3 energy=-1686.989990234375 pbc="F F F"
C       -3.20973754       1.24013281       0.64369744
C       -3.14114046      -1.39939892      -0.70872289
C       -0.36600217      -1.48872626       0.23043321
C        2.19703341      -1.95943809      -0.90884489
O        3.77385879       0.02076809       0.12443846
C        2.09604645       1.95333433       1.08389020
C       -0.39729601       1.41090727      -0.16965961
H       -4.47969007       2.63114119      -0.20280541
H       -3.52483058       1.17225385       2.68938255
H       -3.36599898      -1.33896542      -2.76612449
H       -4.40718126      -2.82646346       0.08091807
H       -0.32140461      -2.10145116       2.22549272
H        2.98469019      -3.79381418      -0.37679249
H        2.20549941      -1.79716730      -2.97280383
H        2.01565742       1.79070449       3.14552474
H        2.85399675       3.81033039       0.58621192
H       -0.28230619       2.02529502      -2.16107202
19
Properties=species:S:1:pos:R:3 energy=-1850.47998046875 pbc="F F F"
C        1.67828465      -0.47086307       0.14356250
C        4.55612993      -0.29920033      -0.02796795
C        5.55634308      -2.04708362      -2.09808731
C        5.35520029       2.38969088      -0.54091519
C        6.86184120       3.73243594       1.00142252
C        7.68158579       6.38699102       0.51585746
O        6.82026720       7.91836834       2.53903604
H        0.95109916       0.75088269       1.64918292
H        1.08519411      -2.40913630       0.56408328
H        0.77338934       0.09868150      -1.63039899
H        5.34272814      -0.93550891       1.78231406
H        4.80922079      -1.53031909      -3.95925975
H        5.01939631      -4.01020670      -1.72089803
H        7.62347651      -1.96818757      -2.19867754
H        4.65362072       3.24849582      -2.27383184
H        7.58022070       2.87992382       2.72953939
H        6.92412663       7.14259768      -1.25426793
H        9.74501514       6.49659491       0.44125104
H        5.01382160       7.61827993       2.69180155
15
Properties=species:S:1:pos:R:3 energy=-1458.6300048828125 pbc="F F F"
O        1.51693988       0.46806628      -0.76195645
C        4.00552034      -0.22863796       0.05567133
C        5.55235577      -1.65471983      -1.84083891
C        6.15669012       1.06308436      -1.29179788
N        8.47729301       1.74389601       0.03817247
C        8.58757687       3.88236666       1.47462893
N        6.77334547       5.31965446       2.20742679
H        0.62338287       1.40383971       0.54577178
H        4.26445055      -0.72533357       2.02984929
H        4.68062496      -2.10111094      -3.63910222
H        6.80983591      -3.10521698      -1.13292861
H        5.67403507       2.41225433      -2.76578426
H       10.14654446       1.13447821      -0.68823826
H       10.53745270       4.34158897       2.05288506
H        5.10433912       4.63207769       1.51898074
12
Properties=species:S:1:pos:R:3 energy=-1096.0899658203125 pbc="F F F"
C        1.82460618      -0.18500419      -0.00296687
C        4.68636942      -0.06254993      -0.02192082
O        5.43007135       2.52508974       0.05134386
C        8.10303211       2.78744054       0.03673628
H        1.16940033      -2.14432883      -0.05909174
H        1.04080451       0.82851261      -1.62801790
H        1.06709051       0.72478557       1.69557571
H        5.41608715      -0.95151490      -1.74262989
H        5.44352627      -1.05478847       1.62939751
H        8.56032753       4.80132151       0.09442961
H        8.90068531       1.97824085      -1.69128597
H        8.92927742       1.87455165       1.69829690
12
Properties=species:S:1:pos:R:3 energy=-1239.3199462890625 pbc="F F F"
O        1.36657441       1.95274854       0.58766705
N        3.79921889       0.91961634       0.47613540
C        5.42120838       2.73912024       0.31369454
C        8.15499973       2.22373533       0.16616362
C        9.76381779       4.16338778       0.00232436
C       12.50104904       3.66831756      -0.14528215
O       14.02152252       5.40722466      -0.29615787
H        0.30226168       0.45137998       0.70617175
H        4.83193541       4.74247551       0.27907476
H        8.72528172       0.25715393       0.19968736
H        9.19423580       6.12993145      -0.03095371
H       13.09366703       1.67121708      -0.11253319
14
Properties=species:S:1:pos:R:3 energy=-1420.31005859375 pbc="F F F"
O        4.79744768      -1.76538217      -0.05746657
C        3.67750144       0.26573330      -0.06923956
C        4.94297552       2.80206704       0.16206291
C        7.80334044       2.57167149      -0.01303911
N        9.07935905       4.96956396       0.36248726
C        8.98653603       6.86832285      -1.39645088
O        7.75462341       6.83576298      -3.34961510
H        1.59587371       0.32397464      -0.18587346
H        4.37762594       3.63570070       1.96956706
H        4.20156050       4.00535011      -1.34750700
H        8.35978889       1.82562661      -1.86470616
H        8.52687931       1.27694464       1.43195891
H       10.27274036       5.15806437       1.84631908
H       10.16264439       8.49981785      -0.84185410
19
Properties=species:S:1:pos:R:3 energy=-1900.219970703125 pbc="F F F"
C        2.15530825       0.49901998       0.39761728
C        4.90939522       0.04735654      -0.36014402
C        5.00301218      -1.25313413      -2.90014386
C        5.98822069      -3.55404568      -3.28171730
C        6.34280920       2.51977968      -0.34958044
C        7.92605925       3.25643277       1.90633678
C        9.18786716       2.54149270      -0.53456575
H        2.04411674       1.40087283       2.26143527
H        1.10116231      -1.28287840       0.49038392
H        1.18788183       1.74230862      -0.94835907
H        5.74068546      -1.20917904       1.06812990
H        4.23323202      -0.22283651      -4.50471020
H        6.79203463      -4.65059710      -1.74514318
H        6.01673698      -4.38713169      -5.15636349
H        5.34750938       4.00977230      -1.34916997
H        8.08678055       1.94949818       3.47412920
H        7.95338488       5.22813511       2.45709753
H       10.05914402       4.02878284      -1.64353263
H       10.17587280       0.74644184      -0.62612295
17
Properties=species:S:1:pos:R:3 energy=-1624.8299560546875 pbc="F F F"
C        2.55156493      -1.07627463       1.78703845
C        3.59442925      -0.12906830      -0.73591608
C        4.29198360      -2.32708430      -2.52794337
N        2.06668019      -3.69859099      -3.47337341
N        1.76424837       1.51671314      -1.96845210
C        1.48587275       4.01457214      -1.37485135
O        2.76092768       5.18765736       0.15567563
H        2.21283150       0.50423563       3.08159542
H        3.88803601      -2.36699533       2.69953036
H        0.74954098      -2.06605649       1.55014229
H        5.30427217       0.97936946      -0.35543859
H        5.57709217      -3.64883447      -1.58389282
H        5.29408646      -1.55652964      -4.16954851
H        1.22552514      -4.62729692      -2.00811744
H        2.66024303      -5.07555866      -4.68646431
H        0.53358305       0.67017245      -3.17065811
H       -0.05327138       4.90489769      -2.46053672
17
Properties=species:S:1:pos:R:3 energy=-1562.9599609375 pbc="F F F"
C        2.71631122      -0.47413230      -0.56238252
N        5.36287260       0.02354599      -1.15706038
C        6.25780916       2.28490567       0.20159598
C        9.11722946       2.71107674      -0.16181725
C       10.72538662       0.72278243       1.16348553
O        9.71339989       2.70871449      -2.79896784
H        2.07790518      -2.13714790      -1.61240888
H        1.50643301       1.11860454      -1.09502065
H        2.46439195      -0.87399834       1.45146084
H        5.49044800       0.38573089      -3.04852509
H        5.84736061       2.13357639       2.22745800
H        5.24417877       3.93586493      -0.53685230
H        9.61265850       4.58007240       0.57740581
H       10.38468742      -1.16879559       0.39500946
H       10.35103130       0.68992013       3.19692540
H       12.73597908       1.12143910       0.87148499
H        9.44747829       0.97850019      -3.36603689
17
Properties=species:S:1:pos:R:3 energy=-1678.5699462890625 pbc="F F F"
C        2.57227635      -0.06527114       0.41866884
C        5.24705124      -1.13512075       0.11890157
C        5.89314890      -3.02873969       2.21300149
C        5.42400551      -2.48771095      -2.44330239
O        7.11222982       0.87023777      -0.01768784
C        7.45568752       2.46306896       1.95397687
O        6.34874296       2.46153831       3.97433972
H        2.20812607       1.40909314      -0.98946059
H        2.29148197       0.80432415       2.27394533
H        1.14060092      -1.54560697       0.20690611
H        5.69017315      -2.19773269       4.09590578
H        7.85925770      -3.65971923       2.05239367
H        4.66053724      -4.69014931       2.13285828
H        5.03897381      -1.17351997      -3.99777222
H        4.08995295      -4.06438494      -2.57477069
H        7.33582258      -3.22060347      -2.75875449
H        8.94647408       3.82569385       1.45278370
16
Properties=species:S:1:pos:R:3 energy=-1645.2900390625 pbc="F F F"
C        1.89297652       0.06638608      -0.03975984
C        4.77061367       0.01787681       0.00215429
C        5.84110546       2.52631807       0.89656168
C        7.24978304       2.16294265       2.98136425
C        7.34925842      -0.47770387       3.82452226
N        8.48056221      -2.37818265       2.19811058
C        5.77498436      -1.91068316       1.89885354
H        1.14592993      -1.76456952      -0.65038705
H        1.19322979       1.51164865      -1.34523940
H        1.10902357       0.46120656       1.83605790
H        5.49398184      -0.41674131      -1.89000964
H        5.53154945       4.31619120      -0.03365602
H        8.23138237       3.65514612       3.97728777
H        7.09680986      -0.90168285       5.80845118
H        9.49407864      -1.53954101       0.78669298
H        4.48847771      -3.36900377       2.51458287
18
Properties=species:S:1:pos:R:3 energy=-1755.6800537109375 pbc="F F F"
C        1.15364003       0.71299368       0.22826003
N        3.82004356       0.10215859       0.54284275
C        5.42094421       2.20629311      -0.27854562
C        8.20543671       1.50242674       0.08286449
C        9.99224854       3.64911795      -0.65913647
C       10.01859093       4.09284449      -3.40377474
C       10.04351616       4.45295048      -5.64347792
H        0.00292908      -0.89336801       0.83864158
H        0.69260353       1.11034644      -1.74928164
H        0.61812943       2.33925414       1.38942111
H        4.23682261      -1.46113622      -0.50535059
H        4.99156046       3.89544368       0.84238321
H        5.04706144       2.64159155      -2.26857853
H        8.65628719      -0.20182276      -1.01106012
H        8.53468323       1.04316664       2.07890654
H       11.90999889       3.16145515      -0.04386054
H        9.46905899       5.38864851       0.33635235
H       10.06851768       4.77017879      -7.63286829
13
Properties=species:S:1:pos:R:3 energy=-1357.969970703125 pbc="F F F"
C        1.74293220      -0.27278197       0.00083148
C        4.51788187       0.00589595       0.00918407
C        5.98279715       2.15984368       0.10452075
N        5.51679087       4.64313269       0.20227629
O        8.45297146       1.44726562       0.07942519
C        8.34937668      -1.11896348      -0.02570027
N        6.06511402      -2.08994269      -0.08069131
H        0.79194641       1.56280351       0.02054132
H        1.12438703      -1.33545053       1.66379046
H        1.12965941      -1.29514265      -1.68922615
H        6.96777916       5.85117769      -0.13332018
H        3.78982687       5.33138990      -0.25756967
H       10.13864517      -2.10339737      -0.05637053
16
Properties=species:S:1:pos:R:3 energy=-1613.8299560546875 pbc="F F F"
C        3.61912799      -0.00068030      -0.86740321
C        1.65326476       1.45635521       0.56170219
C        1.65394497      -1.45595837       0.56158882
C       -1.10216391      -1.88762856      -0.22444278
C       -1.94976270      -0.00001890      -2.39322472
C       -1.10172927       1.88757181      -0.22499080
N       -2.56802440       0.00022677       1.44511139
H        3.54758286      -0.00051023      -2.91388202
H        5.53062391      -0.00032125      -0.12904939
H        2.11709809       2.42642736       2.29943776
H        2.11677670      -2.42663503       2.30017471
H       -1.82889581      -3.81543255      -0.25581223
H       -3.96224546      -0.00011338      -2.88563061
H       -0.81955534      -0.00037795      -4.12058544
H       -1.82842338       3.81545162      -0.25649253
H       -2.02937698       0.00039684       3.29197860
8
Properties=species:S:1:pos:R:3 energy=-981.0499877929688 pbc="F F F"
C        1.55210769       0.00000000       0.00000000
C        3.81985450       0.00000000       0.00000000
C        6.71480179       0.00000000       0.00000000
C        8.98311520       0.00000000       0.00000000
C       11.87825203       0.00000000       0.00000000
C       14.14607430       0.00000000       0.00000000
H       -0.46120656       0.00000000       0.00000000
H       16.15868950       0.00000000       0.00000000
16
Properties=species:S:1:pos:R:3 energy=-1619.530029296875 pbc="F F F"
N        1.92453492      -0.03490324       0.19645593
C        4.66762352       0.00000000       0.00000000
C        5.57850933       2.57223845       0.00000000
C        6.32925987       4.69232225       0.00000000
C        7.24014568       7.26456070       0.00000000
C        5.07540751       9.06960869      -0.31970388
C        4.42233706      10.84315395       1.36672556
H        1.30047178      -1.83896804      -0.02700419
H        1.18606770       0.98556775      -1.25897336
H        5.24130678      -0.96670830      -1.73775434
H        5.47206116      -1.05563879       1.58670855
H        8.57516098       7.55469036      -1.55634069
H        8.27371216       7.65739727       1.75166273
H        3.98890948       8.90773392      -2.05861092
H        5.43882084      11.08014488       3.13254237
H        2.82986498      12.08782196       1.01500964
18
Properties=species:S:1:pos:R:3 energy=-1752.199951171875 pbc="F F F"
C        5.85886908      -2.19009805       0.74725443
C        4.48473597       0.06041455       1.90319991
C        5.58565235       2.59877038       1.03207397
C        3.97685313       4.79253435       1.99779952
N        8.17376518       2.89592981       1.92691600
C       10.11748028       3.59648895       0.36537856
O        9.96993065       3.98339152      -1.90544868
H        4.95588255      -3.95555592       1.33607411
H        7.83641100      -2.26035810       1.35107863
H        5.81224966      -2.10466361      -1.31927454
H        4.56820488      -0.08925176       3.96918082
H        2.48653936      -0.04792345       1.36506259
H        5.57495689       2.66097999      -1.03868794
H        3.92851377       4.83414602       4.06780577
H        2.03109646       4.64245224       1.30993927
H        4.74385500       6.60557556       1.35638869
H        8.52616119       2.72165918       3.79664874
H       11.91296577       3.77208233       1.40814829
15
Properties=species:S:1:pos:R:3 energy=-1524.760009765625 pbc="F F F"
C        1.88107121      -0.07980313       0.14399713
C        4.73206329       0.11740869      -0.00702978
C        6.01921225       2.08553958       1.71815789
C        7.95771217      -0.01313360       2.30937767
N        6.01677465      -1.88356566       1.47515798
C       10.23022175      -0.03444971       0.75509679
N       12.02056694      -0.06880493      -0.51358974
H        1.20162010      -1.72412944      -0.91345584
H        0.99904150       1.60163736      -0.67854398
H        1.21401680      -0.25195718       2.09625435
H        5.39080286       0.21633585      -1.97310090
H        4.89856720       2.66275644       3.36448741
H        6.72689581       3.78321290       0.77433419
H        8.40276146      -0.16731635       4.32635784
H        6.69611216      -3.34961510       0.42241049
15
Properties=species:S:1:pos:R:3 energy=-1527.510009765625 pbc="F F F"
C        1.81232297      -0.03291903       0.23583782
C        4.67709112       0.00812582      -0.04728095
O        5.26307631       0.08938405      -2.71803093
C        5.99982357       2.07609081       1.58842814
C        7.79634857      -0.02305466       2.49625254
O        9.84394264      -0.02666404       3.52055979
C        6.04978800      -2.11135316       1.47430766
H        1.23966038      -0.09276666       2.22290373
H        1.00597680      -1.69136155      -0.70522690
H        0.96570677       1.65460646      -0.61561608
H        7.09624290       0.11257099      -2.85709596
H        4.86568594       2.88806844       3.11373949
H        6.93302727       3.58159804       0.53076738
H        7.01831055      -3.53511071       0.33586103
H        4.93655062      -3.03251910       2.95167661
14
Properties=species:S:1:pos:R:3 energy=-1483.4599609375 pbc="F F F"
O        1.77237415      -0.15189619      -0.72176200
C        4.04571486      -0.03295682      -0.24783759
C        5.32118511       2.43449640       0.44096759
C        8.08882141       2.40645289      -0.33253512
N        9.27870655       0.07460639       0.52116758
C        8.03532314      -2.18563843       0.22593565
C        5.55305481      -2.39379168      -0.18020429
H        4.34803295       3.99051571      -0.51464802
H        5.12915134       2.69287872       2.48661494
H        9.07650566       4.03050232       0.48411003
H        8.26159954       2.53797770      -2.39367819
H       11.18132019      -0.02108934       0.23005526
H        9.24008083      -3.84640527       0.34173808
H        4.58252907      -4.17219400      -0.43452364
14
Properties=species:S:1:pos:R:3 energy=-1442.1800537109375 pbc="F F F"
O        2.21884084      -1.00283992       0.04684631
C        4.48764610      -0.55336851      -0.00822031
C        5.43893433       2.06520605      -0.05994211
C        7.92785454       2.52909613      -0.14590575
C        9.07782841       5.04084444      -0.19844013
C        9.44373608       6.45451069       2.24686551
N       11.56922436       5.26993608       0.95640928
H        5.92134333      -2.06484699      -0.02486880
H        4.03108835       3.55077648      -0.01821696
H        9.24763966       0.94970077      -0.18738525
H        8.77677631       6.12528276      -1.91329098
H        8.86536694       5.57996464       4.00501013
H        9.37007523       8.49908066       2.21712112
H       12.63340473       6.58750963       0.03012224
17
Properties=species:S:1:pos:R:3 energy=-1577.5699462890625 pbc="F F F"
C        1.80839229      -0.10045784      -0.90636933
C        4.55962563      -0.23606458      -0.09240761
N        5.70245647       2.28261900      -0.17455401
N        8.18427181       2.37882495       0.46103647
C        9.23314476       4.51553822      -0.06145389
O       11.68644428       5.05788994       0.42416793
C       13.12222004       3.07231665       1.56779242
H        0.96680278      -1.99052417      -0.89270663
H        1.63166511       0.66146082      -2.82306194
H        0.70549148       1.09743953       0.37161463
H        5.58493423      -1.51066601      -1.36202013
H        4.67918873      -1.01075780       1.82434165
H        4.65585041       3.47356224       0.93503648
H        8.29370594       6.14894199      -0.95253533
H       15.05412483       3.75634098       1.83345008
H       13.18170929       1.41360962       0.33374453
H       12.34095097       2.58956742       3.42091441
11
Properties=species:S:1:pos:R:3 energy=-1151.6700439453125 pbc="F F F"
N        1.91578543      -0.38593876       0.60134864
C        4.08199739      -0.17867361       0.31403470
C        6.77296734       0.16179836      -0.06483650
C        8.06121254       2.13480473       1.62231100
C        9.84500027      -0.01286903       2.34069037
O        8.23952675      -1.85499299       1.10966611
H        7.29188633       0.32582659      -2.06518722
H        6.93272495       2.85777617       3.19707656
H        8.94386578       3.70941901       0.61871523
H       11.71649075       0.05247770       1.46431100
H       10.02244568      -0.37626338       4.36640120
14
Properties=species:S:1:pos:R:3 energy=-1428.31005859375 pbc="F F F"
C        2.06074643      -0.09469417      -0.15928501
C        4.83671618       0.31541419      -0.20225739
N        5.92756081       2.37829590      -0.94781107
O        8.61083984       2.11747599      -0.69294369
C        9.07994556      -0.27818659       0.54339075
C        8.64394760      -2.65177703      -0.94316232
C        6.59125137      -1.60753334       0.72767687
H        1.63056910      -2.11352634      -0.23332448
H        1.18402684       0.84979093      -1.77439618
H        1.28758383       0.69906640       1.58510232
H       10.34715748      -0.31923145       2.14663434
H        9.61103344      -4.34967709      -0.33300754
H        8.44034863      -2.48257113      -2.97473121
H        6.14622068      -2.55630803       2.48166394
15
Properties=species:S:1:pos:R:3 energy=-1470.3900146484375 pbc="F F F"
C       -3.30824900       1.24714363       0.40982491
O       -2.94767046      -1.32809949      -0.70753235
C       -0.45234373      -1.17331207       0.42993158
C        1.96051526      -1.83700275      -0.88516665
O        3.68065739       0.08305346       0.05003995
C        2.09357095       2.06239033       1.10951495
C       -0.45572636       1.68633497      -0.09953187
H       -4.60118055       2.37946749      -0.73440427
H       -3.94380164       1.16548860       2.37829590
H       -0.50495374      -1.79518318       2.41524005
H        2.68414807      -3.70136881      -0.36781630
H        1.85935819      -1.68588138      -2.94672561
H        2.06764388       1.86769187       3.17209435
H        2.93113542       3.89077592       0.63200003
H       -0.26193494       2.24764037      -2.09956121
16
Properties=species:S:1:pos:R:3 energy=-1612.25 pbc="F F F"
C        4.37322330      -1.02631021      -2.69990849
C        4.31471729       0.16397154      -0.08551010
C        6.09627533       2.41123390       0.02082478
C        5.26838636       4.89741421      -1.28416336
C        5.84046316       6.09353542       1.30398667
O        6.30138636       8.15346909       2.15513825
N        5.84475279       3.78043485       2.43504429
H        3.14265227      -2.68711495      -2.76253390
H        6.29053926      -1.62142277      -3.20172524
H        3.72822189       0.31048200      -4.14107037
H        4.89023352      -1.25475931       1.31060064
H        2.37255120       0.72253680       0.37159574
H        8.07682133       1.89874017      -0.32692263
H        3.28130150       5.03978634      -1.83352566
H        6.49256992       5.53897619      -2.81569195
H        6.88323307       3.58503723       4.02719545
15
Properties=species:S:1:pos:R:3 energy=-1421.6800537109375 pbc="F F F"
N        1.96310425       0.06143500       0.15044110
C        4.70358515       0.07258438      -0.12462744
C        5.85890675       2.00252390       1.72641599
C        7.85967350      -0.02876163       2.36552143
C        5.88895369      -2.03986478       1.55524457
O        6.84143209      -4.23551893       0.25318551
H        1.13589549      -1.53489220      -0.54495925
H        1.08664918       1.53880394      -0.71707547
H        5.40971899       0.15722522      -2.06649113
H        4.67973661       2.51758766       3.35290337
H        6.59865904       3.73160434       0.86923623
H        9.54572487       0.04113934       1.16546965
H        8.44526196      -0.09664059       4.34489632
H        4.69931412      -2.63605452       3.14920974
H        7.92190218      -3.58212709      -1.08128238
12
Properties=species:S:1:pos:R:3 energy=-1294.9300537109375 pbc="F F F"
C        1.88972616       0.00000000       0.00000000
C        4.13880253       0.00000000       0.00000000
C        6.86756706       0.00000000       0.00000000
C        7.93010330       2.68645358      -0.01196197
C       10.71134567       2.67434049      -0.01300132
C       12.98050976       2.67216730      -0.01400287
H       -0.12455185      -0.00415740       0.00001890
H        7.56999731      -1.03538096      -1.65352929
H        7.57007265      -1.02052772       1.66269445
H        7.24672174       3.72740912       1.64604592
H        7.24558783       3.71300960      -1.67860591
H       14.99673462       2.67458606      -0.01496663
16
Properties=species:S:1:pos:R:3 energy=-1566.1600341796875 pbc="F F F"
C        1.83658707       0.06202081      -0.45986485
C        4.62633324      -0.06553570      -0.04463533
C        5.93808651      -2.22639966       0.16967851
C        6.06902552       2.36414194       0.06504437
C        5.09568453       4.39383984       1.83139026
N        8.06896019       2.65258956      -1.34474802
O        9.15285110       5.04309320      -1.02139699
H        1.39382422       1.34928334      -2.01900220
H        0.86532450       0.72896188       1.23969817
H        1.05289876      -1.79161155      -0.94461739
H        5.01240396      -4.05230999       0.07043009
H        7.97392607      -2.22194004       0.42889225
H        3.58860874       3.68160224       3.04969668
H        4.36836672       5.97665596       0.71958882
H        6.62885714       5.05651045       3.04979110
H       10.58943939       4.97827578      -2.17382765
15
Properties=species:S:1:pos:R:3 energy=-1516.52001953125 pbc="F F F"
C        5.45652771      -1.96013737      -0.80608159
O        4.34230709       0.38964263      -0.14770100
C        6.14000368       2.40473318      -0.10159168
C        6.62759066       3.45651698      -2.77071643
C        5.76906919       6.10719824      -2.52541113
C        5.01336765       6.48459530      -0.16727856
O        5.18461466       4.45319653       1.44552708
H        3.96950197      -3.39419389      -0.84950751
H        6.85904455      -2.51611376       0.60832173
H        6.33339834      -1.86840999      -2.67587113
H        7.90308046       1.75959957       0.78015453
H        5.56970310       2.44880152      -4.23387480
H        8.64222813       3.38451838      -3.23608041
H        5.75863791       7.49539089      -4.01854038
H        4.27559996       8.18512154       0.67593616
16
Properties=species:S:1:pos:R:3 energy=-1610.22998046875 pbc="F F F"
C        1.95414686      -0.03435522      -0.03658510
C        4.81831026      -0.03278675       0.18179165
C        5.81650162       2.26052809       1.62155509
C        8.27548885       1.22176468       2.56845903
O       10.01662540       2.51577353       3.37263203
C        8.30334282      -1.63183522       2.39144850
N        5.70215416      -2.23889089       1.62047791
H        1.29206240      -1.70281327      -1.06886685
H        1.30194569       1.64462864      -1.05722618
H        1.04528308      -0.03688746       1.82492745
H        5.65122604      -0.08176845      -1.71827126
H        4.63585711       2.77646112       3.23829150
H        6.12730455       3.87641406       0.37511063
H        9.66337872      -2.20965672       0.94626147
H        8.74109840      -2.47678852       4.22208261
H        5.66519117      -3.83478355       0.54246479
17
Properties=species:S:1:pos:R:3 energy=-1654.969970703125 pbc="F F F"
C        1.90448487      -0.02993326      -0.25035092
N        4.63916445       0.04403062      -0.65331614
C        5.75385714       2.28615284       0.53360194
C        8.44985390       2.52072453      -0.43405119
C        9.89638233       0.10718527       0.09660280
C        8.25952053      -2.20483804      -0.16659826
N        5.82205725      -2.22885633      -0.44633442
H        1.00983191       1.73340797      -0.86086476
H        1.44649088      -0.35991725       1.73981416
H        1.05475068      -1.55082262      -1.36988139
H        4.71172953       3.99960542       0.01644062
H        5.72717428       2.11505699       2.59943175
H        9.40267277       4.13439941       0.44695804
H        8.42475796       2.87835526      -2.47571135
H       10.63250637       0.10967971       2.03086972
H       11.51738930      -0.07736539      -1.17580652
H        9.22980022      -4.04184055      -0.01290683
10
Properties=species:S:1:pos:R:3 energy=-1179.8399658203125 pbc="F F F"
C        1.84153807      -0.12678173      -0.00289128
C        4.10629940       0.00714316       0.00105825
C        6.76932049       0.16348021       0.00568808
C        8.43619061       2.14784384       0.00143619
N       10.87012005       1.24069965       0.00967540
C       10.56171703      -1.22675347       0.01842483
O        8.11508846      -2.03119111       0.01668628
H       -0.16697620      -0.25581223      -0.00634948
H        8.02961636       4.14889383      -0.00695419
H       11.99932671      -2.67821431       0.02677742
12
Properties=species:S:1:pos:R:3 energy=-1213.2099609375 pbc="F F F"
O        3.70836067      -0.89809233       2.80248284
N        4.70216751       0.59564167       0.80766892
C        6.41686726      -0.79504555      -0.83748883
C        5.10779762      -2.89256597      -2.10732818
C        4.04726410      -4.60909891      -3.14605379
C        5.34620523       2.99542379       1.59918070
O        6.87506914       4.39928246       0.57440114
H        2.04060197      -1.31693125       2.13265038
H        7.98809910      -1.49156082       0.31764406
H        7.20261574       0.50499153      -2.24391747
H        3.11364508      -6.13645077      -4.07088566
H        4.23274088       3.60270619       3.25390053
19
Properties=species:S:1:pos:R:3 energy=-1918.7099609375 pbc="F F F"
C        2.76376224      -0.42516950      -0.83631718
C        5.34263372       0.11909054       0.19003086
C        6.86344767      -2.02397227       1.30916452
C        7.65214348      -0.85043347      -1.15660691
C        9.58418083       1.22671568      -1.23726034
C        8.04720974       3.63260174      -0.75488889
C        5.89295959       2.80452371       0.99883366
H        2.13493705       1.08895469      -2.09672666
H        1.40453899      -0.58273482       0.71356058
H        2.71973157      -2.19436884      -1.90815091
H        6.07603645      -3.91585279       1.25483489
H        7.99176502      -1.66067243       2.98062730
H        7.44846916      -1.89586771      -2.89810300
H       11.00699329       0.95434952       0.24205501
H       10.55039787       1.31233919      -3.06335950
H        9.18658257       5.15984058       0.04533453
H        7.24887609       4.30139446      -2.54823899
H        6.50122499       2.85399675       2.97760367
H        4.25838423       4.05597591       0.80022341
15
Properties=species:S:1:pos:R:3 energy=-1455.56005859375 pbc="F F F"
C        1.90261412      -0.03295682      -0.33119339
N        4.63961792       0.05034230      -0.69900972
C        5.73985434       2.29004574       0.50141996
C        8.50762272       2.33689213      -0.26681045
O        9.73647404      -0.01530678       0.30063653
C        8.25978470      -2.10413456       0.10202631
N        5.85673380      -2.18992805      -0.34937257
H        1.00966179       1.72594357      -0.95780772
H        1.41950560      -0.35555196       1.65575910
H        1.07476282      -1.56299245      -1.45325613
H        4.81447411       4.03182507      -0.12583686
H        5.57146072       2.14635086       2.56178832
H        9.50195885       3.82682776       0.76739889
H        8.73928452       2.71190810      -2.29159522
H        9.38460636      -3.82136631       0.42516950
15
Properties=species:S:1:pos:R:3 energy=-1476.6500244140625 pbc="F F F"
C        3.81575394      -0.97156489       0.94285995
N        6.36951113      -0.14000981       0.55637318
C        8.06217670      -1.50286138      -0.85602707
O        7.65958929      -3.57602334      -1.79357684
C       10.57715607      -0.27344337      -1.16658461
C       11.08201504       1.39499581      -3.40759206
N       10.65348244       2.50904608      -0.91874707
H        3.02127528       0.05945078       2.54538560
H        3.77792168      -3.00190544       1.32137215
H        2.71733165      -0.57181221      -0.76250452
H        6.86658430       1.68219638       0.90262771
H       12.15122223      -1.30687785      -0.36171249
H        9.58928299       1.64820027      -4.78609037
H       12.98901367       1.47778475      -4.14721203
H       12.32830906       3.05122733      -0.12156608
17
Properties=species:S:1:pos:R:3 energy=-1787.93994140625 pbc="F F F"
C        1.83462167      -0.13929172      -0.35390791
C        4.56172323       0.13619256       0.32227388
C        5.91108227       2.28067279       0.24825332
C        8.65713787       2.51503658       0.97456956
C        9.10369873       5.36549950       1.22760391
C        6.78751850       6.50498533       0.08832580
C        5.03077221       4.76377296      -0.42216483
H        1.48247123      -2.05471802      -1.05140579
H        1.25353098       1.16983497      -1.84696162
H        0.64955556       0.16253534       1.31369984
H        5.49670315      -1.58257008       0.94278437
H        9.85584736       1.74281883      -0.52857530
H        9.09848309       1.52701211       2.73985720
H       10.81730270       5.94925451       0.22482072
H        9.27897072       5.92257166       3.21298790
H        6.54500961       8.51093006      -0.20526205
H        3.18008780       5.17204809      -1.17780960
17
Properties=species:S:1:pos:R:3 energy=-1673.8699951171875 pbc="F F F"
C        6.93801594      -3.42675376      -0.20511088
C        5.21866751      -1.11881232      -0.12946513
O        3.89557600      -1.04331779       2.21419215
C        6.59094906       1.37872529      -0.60805720
C        8.44509125       2.10678005       1.45542932
C       10.10202217       4.35969257       0.92836577
O        8.54745770       0.98713624       3.49451947
H        7.93821049      -3.55591655      -2.00993156
H        5.82043219      -5.15086412       0.04962421
H        8.32849598      -3.40625024       1.32481146
H        3.78296709      -1.34773374      -1.60498226
H        5.17306852      -0.81570029       3.53836107
H        5.20043182       2.91129327      -0.70978111
H        7.60962486       1.28798068      -2.40768123
H       11.27881145       3.98363709      -0.72656190
H       11.32930470       4.71794701       2.55205631
H        8.92236042       6.02267075       0.60291713
17
Properties=species:S:1:pos:R:3 energy=-1722.1199951171875 pbc="F F F"
C        2.63195395      -0.35642123       1.29189241
C        4.57969475       0.28077552      -0.75711876
C        5.23157454      -2.09878659      -2.26825714
C        3.77984905       2.39218545      -2.52061129
C        1.39749026       3.03416324      -3.12343383
C        5.82971048       3.95071816      -3.66896009
O        8.07727528       3.56789732      -3.26865935
H        2.10473919       1.33220029       2.36724114
H        3.41700268      -1.72804117       2.63008308
H        0.91090471      -1.18585980       0.49503267
H        6.28717566       0.88690519       0.25397921
H        3.58318520      -2.81419897      -3.29851699
H        5.89655018      -3.60459590      -1.01281762
H        6.73041058      -1.72885370      -3.64722824
H       -0.21246190       2.00481057      -2.37746453
H        0.95884705       4.58613873      -4.39183712
H        5.20579863       5.49519110      -4.92311430
18
Properties=species:S:1:pos:R:3 energy=-1712.31005859375 pbc="F F F"
C        0.96822006      -0.68154866      -0.75645739
C        3.74759150      -0.55255592      -1.47230458
O        4.09172964       1.50291812      -3.19254112
C        5.43530607      -0.18069561       0.87280780
N        8.10478973       0.00873053       0.09165172
C        9.86505032      -0.70813709       2.09430790
C        9.37343884      -2.43249321      -0.11931731
H        0.60057384      -2.24981356       0.53723025
H       -0.19808109      -0.93055785      -2.44613719
H        0.35001507       1.08043206       0.13970745
H        4.27371025      -2.29363608      -2.46452403
H        5.91221619       1.81073558      -3.20682740
H        5.08856010      -1.70424950       2.23736024
H        4.93957424       1.60673964       1.79512644
H        9.12123585      -1.23421788       3.92696428
H       11.63689613       0.31501734       2.13733697
H       10.81065083      -2.56311107      -1.57115614
H        8.28512669      -4.13804674       0.18379477
16
Properties=species:S:1:pos:R:3 energy=-1472.02001953125 pbc="F F F"
C        1.83341229      -0.15078124       0.11451741
C        4.70398188       0.02932855       0.16793996
C        5.68741417       2.75866008       0.05716421
C        4.89936066       4.33153582       2.34798479
N        8.45246124       2.69686604      -0.10896161
H        1.24965703      -2.13308501       0.00430858
H        1.05596006       0.83652508      -1.52941203
H        0.98896927       0.65222007       1.82279205
H        5.44333744      -1.03065658      -1.45386076
H        5.40435219      -0.92209184       1.87111235
H        4.96797657       3.67020726      -1.65942526
H        5.49757242       3.44353461       4.11884689
H        2.84776068       4.57748365       2.41302919
H        5.73437405       6.22464466       2.26931548
H        9.18200874       1.89144576       1.48243344
H        9.13864040       4.49656534      -0.15648822
12
Properties=species:S:1:pos:R:3 energy=-1218.3499755859375 pbc="F F F"
C        2.85484695      -0.13927281      -0.54605526
O        5.48215199       0.26195383      -0.14724746
C        6.33608150       2.71763396      -0.16888483
C        4.95361471       4.81470108      -0.53617197
C        9.11239147       3.04805255       0.26798207
O       10.19667912       5.09445620       0.31189930
H        2.50333905      -2.17617083      -0.47093865
H        2.27602386       0.53664440      -2.41469216
H        1.73323786       0.75464326       0.94575125
H        2.93597293       4.78302908      -0.86802679
H        5.83158159       6.67375660      -0.51432675
H       10.14807510       1.26112759       0.55733693
21
Properties=species:S:1:pos:R:3 energy=-2045.449951171875 pbc="F F F"
C        4.03564262      -1.84607351      -1.34665668
C        3.72740912       0.74377733      -0.14441288
C        6.11050510       2.26735020      -0.32295421
C        6.34116507       4.40249491      -2.19722247
C        6.09293079       4.97423172       0.58330178
C        8.29740906       6.00381088       2.03493261
C        8.40438652       4.92343569       4.69568586
H        2.26355171      -2.90662551      -1.23922575
H        5.49912214      -2.94030046      -0.37316421
H        4.58332300      -1.68476641      -3.33536673
H        3.22683954       0.50667340       1.85091114
H        2.15186906       1.73507094      -1.05327666
H        7.78404665       1.15433919       0.08552901
H        4.74370384       4.83244562      -3.40617466
H        8.15747547       4.68087053      -3.10470676
H        4.31609678       5.76294661       1.23599422
H        8.12519836       8.06582355       2.13754487
H       10.08112240       5.59323025       1.06433153
H        6.64146137       5.27983809       5.71644068
H        9.95878124       5.77727079       5.75846815
H        8.70610046       2.87718368       4.65097523
20
Properties=species:S:1:pos:R:3 energy=-1867.97998046875 pbc="F F F"
C        1.82020307      -1.55133283       0.51495039
C        4.55541182      -0.74400407      -0.00058582
C        6.00464249      -2.94812393      -1.18066311
C        4.63177538       1.64986324      -1.65783787
O        3.30505538       3.64637780      -0.39002058
C        7.32985067       2.60137820      -2.22522807
N        7.20990992       5.08950472      -3.46426487
H        0.77070588      -0.06723645       1.50335276
H        1.76593018      -3.24379039       1.70613921
H        0.82199305      -1.97918582      -1.24772942
H        5.41087151      -0.30543643       1.83753192
H        5.29726124      -3.38024759      -3.07760787
H        5.81604815      -4.65590715      -0.02532233
H        8.02549648      -2.53208184      -1.32231700
H        3.63753390       1.30489373      -3.44478178
H        4.02519226       5.20041275      -1.09910250
H        8.35563183       1.27713358      -3.43641019
H        8.38146496       2.82763505      -0.45676571
H        6.40980005       4.88925076      -5.20893574
H        9.00851345       5.70978880      -3.78272152
21
Properties=species:S:1:pos:R:3 energy=-1929.199951171875 pbc="F F F"
C        4.53751612      -3.13067150       0.21129028
C        7.03123617      -1.87938929      -0.55489916
C        7.51426935      -2.33694863      -3.36828566
N        6.86628199       0.82136947       0.07466308
C        9.27789402       2.16388750      -0.26662147
C        9.07163048       4.94711399       0.57464683
N        8.00389767       5.21878099       3.12326384
H        4.17504740      -2.89687467       2.23728466
H        4.58806610      -5.16356325      -0.17952399
H        2.93408322      -2.32564807      -0.82350487
H        8.54883766      -2.76313877       0.54650879
H        6.12129545      -1.35546279      -4.54560375
H        7.40194368      -4.35721731      -3.80965018
H        9.39942265      -1.69973302      -3.93267131
H        6.41747236       0.98184502       1.94764626
H        9.85923004       2.14608645      -2.25223231
H       10.75915527       1.23595643       0.84831697
H        7.87703991       5.98978949      -0.75600386
H       10.95101929       5.81005764       0.53057843
H        6.14221478       4.71732330       3.03174424
H        8.00062847       7.08998775       3.58775854
13
Properties=species:S:1:pos:R:3 energy=-1404.3900146484375 pbc="F F F"
O        3.76516604      -2.17624640       0.94405049
C        5.47361088      -0.85037678      -0.40245497
O        6.74979925      -1.77702284      -2.07928467
C        5.59687757       1.81916380       0.40270063
C        7.22761679       3.38839245      -0.73635066
C        7.46734715       6.02308655      -0.06415620
C        9.10201740       7.58146763      -1.20033514
H        2.86384225      -1.23161006       2.23976016
H        4.36657143       2.46465635       1.90049756
H        8.44579124       2.68390250      -2.24234915
H        6.26455545       6.76357555       1.42976677
H       10.35091782       6.95203781      -2.70223284
H        9.22736263       9.55169678      -0.64222342
16
Properties=species:S:1:pos:R:3 energy=-1620.4200439453125 pbc="F F F"
C        1.50563931       2.62375236      -1.18816531
C       -0.61011696       1.80234516       0.52260375
C       -2.63454270       0.01540127      -0.35337877
C       -1.49828827      -2.60485530       0.13912164
C        1.33972132      -2.26283360      -0.32907692
C        1.85058987       0.39172134       0.53751367
H        1.32995141       2.29577160      -3.20191407
H        2.49595022       4.35670710      -0.71626288
H       -1.10809755       2.92147875       2.15649867
H       -4.40173912       0.27329218       0.68561155
H       -3.01524711       0.27841336      -2.37166309
H       -1.80604911      -3.11874723       2.12552619
H       -2.33734560      -4.07959747      -1.04157925
H        2.44585371      -3.65140438       0.72750676
H        1.77792990      -2.46896505      -2.34197545
H        3.05317378       0.53675783       2.18170762
15
Properties=species:S:1:pos:R:3 energy=-1484.5 pbc="F F F"
C        1.51716661       2.65729499      -1.11454153
C       -0.62546158       1.73714960       0.51478028
C       -2.59011531      -0.04387944      -0.45217368
N       -1.43437767      -2.55164051      -0.05514221
C        1.31112981      -2.25393295      -0.43291736
C        1.82069445       0.35077095       0.52693123
H        1.38547158       2.40628266      -3.14291692
H        2.48423409       4.36995411      -0.54386318
H       -1.17703485       2.78840423       2.17569828
H       -4.37067175       0.11238201       0.58991581
H       -2.97083855       0.26036647      -2.46478868
H       -1.70589352      -3.01071167       1.79682720
H        2.35185862      -3.69301629       0.62402534
H        1.78346682      -2.43224764      -2.43939066
H        2.99504590       0.42834422       2.19433117
17
Properties=species:S:1:pos:R:3 energy=-1650.5799560546875 pbc="F F F"
C        1.50331497       1.97720158      -4.21325779
C        1.35170221      -0.17126589      -2.31653976
O        0.76974213      -2.44345379      -3.66021061
C        3.83912992      -0.50055069      -0.87031335
O        3.46779871      -2.46737766       0.96003759
C        5.45828485      -3.03011918       2.50277209
C        7.76575375      -2.00131440       2.57051897
H        1.96406794       3.76958799      -3.28903055
H       -0.30093887       2.19312167      -5.20354986
H        2.93162656       1.58933532      -5.66229963
H       -0.20136921       0.16191174      -0.98853463
H        0.94737643      -3.81278706      -2.43680191
H        4.33669472       1.26951802       0.08600143
H        5.34626198      -1.06727958      -2.17581177
H        4.91481876      -4.53740263       3.78415775
H        8.36439991      -0.49866092       1.31638324
H        9.14553738      -2.67488837       3.93333268
18
Properties=species:S:1:pos:R:3 energy=-1753.050048828125 pbc="F F F"
C        1.78431726      -0.27673149      -0.18636478
C        4.61440897       0.24708170      -0.04350150
C        5.43394518       2.99444103      -0.07591030
C        3.84506345       4.96918583      -0.25864682
C        8.25269890       3.44408250       0.18390815
C        9.73471642       2.65534878      -2.15311623
H        1.44080281      -2.31721997      -0.14140821
H        0.97043109       0.45710585      -1.94199598
H        0.77911520       0.56589741       1.41411984
H        5.51261473      -0.73393184      -1.63147616
H        5.33741808      -0.62684107       1.69190955
H        1.81485522       4.74296713      -0.42318526
H        4.53721333       6.90194130      -0.25127688
H        8.96208286       2.41886830       1.83972394
H        8.63266563       5.45008373       0.54930562
H        9.65651989       0.60962564      -2.44587255
H       11.72461700       3.17986107      -1.94137239
H        9.00550842       3.58288288      -3.85273576
12
Properties=species:S:1:pos:R:3 energy=-1225.469970703125 pbc="F F F"
C        1.97977161       0.00156847      -0.13097692
C        4.79070139       0.04074249       0.00746442
N        6.28116608      -1.26828969      -1.90148020
C        6.33073378       1.51503122      -1.89586771
C        8.53419209       2.85199356      -1.02802992
N       10.27495098       3.98688745      -0.33365005
H        1.19166136       1.48179090       1.07978952
H        1.25587416      -1.82007086       0.52963352
H        1.28352094       0.31280637      -2.05498266
H        5.47716331      -0.12621480       1.93205595
H        5.17820883      -1.92145467      -3.34341693
H        5.34463692       2.40133166      -3.45863342
15
Properties=species:S:1:pos:R:3 energy=-1609.6500244140625 pbc="F F F"
C        1.96716714      -0.22895922       0.73782468
C        4.66968346      -0.06449635      -0.15737639
C        5.79815245      -2.14937449      -1.08133912
C        5.95275068       2.39573812      -0.02849707
C        5.17977715       4.29657602       1.46782589
C        8.09660721       2.87115550      -1.61099148
C        9.88455296       3.29097700      -2.94521379
H        0.79757780       1.20345318      -0.19333789
H        1.85038209       0.03477096       2.78691149
H        1.11934149      -2.06932569       0.30955604
H        4.81298113      -3.94646621      -1.17654347
H        7.73750257      -2.15107536      -1.74994314
H        3.57734609       4.13441849       2.73103213
H        6.16589308       6.09680462       1.48887742
H       11.46451473       3.66378212      -4.13445616
12
Properties=species:S:1:pos:R:3 energy=-1262.989990234375 pbc="F F F"
O        1.97952592      -0.42641670       0.26070660
N        4.62412214      -0.28249517       0.20802106
C        5.41374397       2.00679469      -0.13934840
C        3.87412763       4.33692169      -0.46502382
C        4.87810135       6.63314676      -0.81613493
C        8.14980316       2.00029397      -0.17086904
C       10.41994953       1.99037290      -0.19636144
H        1.69508433      -2.22823286       0.53021938
H        1.84100902       4.09411049      -0.40485492
H        6.90061855       6.96127844      -0.88881379
H        3.65926576       8.26789188      -1.04301548
H       12.43250847       1.95957041      -0.21573113
16
Properties=species:S:1:pos:R:3 energy=-1609.1199951171875 pbc="F F F"
C        1.29357421       0.29870901       2.06157780
N        3.70361757      -0.54085851       1.11189592
C        5.68533564       1.13154912       0.83274561
O        5.56788921       3.35900712       1.47659421
C        8.05492020      -0.02500108      -0.33302644
C        8.67140484       1.26403785      -2.78307533
C        8.86723709       0.08998876      -5.01718521
H        0.20821002      -1.35485804       2.65240073
H        0.29406029       1.28919005       0.54953235
H        1.55906188       1.57631505       3.66374445
H        3.77584291      -2.20837164       0.18077120
H        7.81307268      -2.06363773      -0.59639758
H        9.60814285       0.23528980       1.00977516
H        8.97752190       3.29859257      -2.69127226
H        8.58797359      -1.93201816      -5.21282864
H        9.32583618       1.15006840      -6.71444273
16
Properties=species:S:1:pos:R:3 energy=-1574.530029296875 pbc="F F F"
N        1.99829090      -0.02522784      -0.05618156
C        4.76167536       0.02107045       0.07307571
C        5.94931126       1.96992612      -1.81124580
C        5.12310410       0.09828465      -3.95975113
C        6.08814955      -1.79794216      -1.88460493
O        8.78320122      -1.31324625      -1.63306355
C        8.80682278       1.41663325      -1.56660187
H        1.16152012       1.40274370       0.93025547
H        1.22747159      -1.65430403       0.62908983
H        5.51905870       0.00200311       1.99715710
H        5.29006147       3.91802597      -1.84679151
H        6.23741913       0.16862026      -5.70202208
H        3.12403846       0.03339146      -4.48362112
H        5.57176304      -3.78754020      -1.98264396
H        9.89838505       2.14725804      -3.16277790
H        9.59342194       2.06962800       0.23018754
13
Properties=species:S:1:pos:R:3 energy=-1455.3199462890625 pbc="F F F"
C        1.88972616       0.00000000       0.00000000
C        4.61849070       0.00000000       0.00000000
C        6.86756706       0.00000000       0.00000000
C        9.52452183       0.00000000       0.00000000
C       10.78020763      -2.20011353       0.00000000
C       10.91057968       2.31073833       0.00000000
C       12.06820679       4.26322222       0.00000000
H        1.14513624       1.92916477       0.02207200
H        1.14513624      -0.98371583       1.65965199
H        1.14513624      -0.94546777      -1.68172395
H        9.79106808      -3.99695969       0.00000000
H       12.83078671      -2.26270127       0.00000000
H       13.08540821       5.99963474       0.00000000
15
Properties=species:S:1:pos:R:3 energy=-1475.489990234375 pbc="F F F"
C        2.72345448      -0.97447509      -1.32439566
C        3.42552543       1.39214230      -0.76254231
C        5.99653578       2.40609384      -0.93577349
C        6.99650335       3.19970322      -3.46634364
N        6.24858713       5.09377575      -1.59893513
N        8.39255714       5.94258404      -0.50996149
C        8.19812298       8.28741264       0.13347135
H        0.76942092      -1.56548691      -1.12879014
H        4.08190298      -2.36089158      -1.98631001
H        1.97982824       2.69550538      -0.09401388
H        7.32144165       1.65044904       0.43592203
H        5.78093672       3.06124306      -5.10541630
H        8.99097633       2.94557285      -3.85022259
H        9.80847263       9.23726463       1.04756963
H        6.48465204       9.43859577      -0.17744528
13
Properties=species:S:1:pos:R:3 energy=-1334.6500244140625 pbc="F F F"
N        2.30176210       0.13364144       1.43220448
C        4.34389448      -0.07381270       0.15287885
N        5.72677708      -2.20633078      -0.29774526
C        7.65507269      -1.62639284      -2.16961336
C        9.77560997       0.16720296      -1.59439969
C        7.37871933       1.16637671      -2.72379446
O        5.35729790       1.98995721      -1.04662478
H        1.78947616       2.00229716       1.34614646
H        4.79510450      -3.86471677      -0.11374261
H        7.79563046      -2.91940022      -3.74694896
H       10.17747879       0.60446668       0.36543524
H       11.43688679       0.09647052      -2.78844213
H        7.35946274       1.77932835      -4.67393541
15
Properties=species:S:1:pos:R:3 energy=-1513.719970703125 pbc="F F F"
O        5.67275000       5.92616224      -2.04474044
C        4.46795511       4.32112360      -0.88488317
C        5.63178062       2.06887221       0.39510393
C        8.47285175       1.90282190       0.05204306
C       10.12898922       3.78971338       1.51183760
C       11.49866199       1.43940437       2.46480751
O        9.50375366      -0.18589236       1.52251458
H        2.39492559       4.46880531      -0.71184093
H        4.72733879       0.38351992      -0.39688027
H        5.13145685       2.16662765       2.40186071
H        9.02036190       1.68692076      -1.93787634
H        9.15971088       4.86390924       2.98786497
H       11.26235199       5.05987406       0.34387347
H       13.30108261       1.01999855       1.54271567
H       11.70116520       1.30332518       4.51576519
20
Properties=species:S:1:pos:R:3 energy=-1915.77001953125 pbc="F F F"
C        5.60468197      -1.95745397      -1.28010046
C        4.53294277       0.29812318       0.14172946
C        6.35427952       2.46707535       0.17805000
C        6.56500292       4.36993504      -1.95078313
C        4.98906612       4.24498653      -4.28344202
C        5.37931347       5.12287760       0.52528715
N        6.73069429       6.85562420       2.19315934
H        4.26524401      -3.53221941      -1.24542403
H        7.37684822      -2.59655929      -0.42628443
H        5.99065876      -1.47957993      -3.25452423
H        4.13846254      -0.26361680       2.09674573
H        2.71682143       0.83828253      -0.69369954
H        8.09195805       1.95390129       1.13838995
H        8.44104767       5.07232714      -2.38264227
H        3.01477456       3.76832175      -3.89234447
H        5.75329018       2.83268046      -5.58497238
H        5.01204491       6.07603645      -5.24385786
H        3.33816338       5.38379192       0.53743809
H        8.63510323       6.59249878       2.08746719
H        6.25346279       6.53348255       4.03152275
17
Properties=species:S:1:pos:R:3 energy=-1574.2099609375 pbc="F F F"
C        4.84393501      -2.29616833      -0.72559816
N        3.69350743       0.04998326       0.06479871
C        4.96894026       2.31980896      -0.04017558
C        3.38586020       4.69056463       0.26970172
N        7.40810442       2.41539121      -0.37900347
O        8.29368687       4.91215420      -0.42284513
C       10.96438026       4.85587788      -0.71008348
H        3.57050514      -3.87032914      -0.30846000
H        6.62080669      -2.63520432       0.27693936
H        5.20517492      -2.27761126      -2.76106000
H        1.78734076       0.11584021      -0.09671618
H        1.38040709       4.22701502       0.46245378
H        3.61933589       5.90779400      -1.38503695
H        3.99061036       5.70920277       1.96395457
H       11.65123844       6.80093527      -0.81095707
H       11.47972679       3.87622523      -2.45611477
H       11.83646965       3.92388415       0.91610146
